# HZ S RI R 50
20000000 0.897194 0.473334
21800000 0.985214 0.255437
23600000 1.021782 0.024663
25400000 1.002188 -0.20849
27200000 0.926575 -0.421317
29000000 0.805987 -0.607982
30800000 0.652288 -0.756879
32600000 0.474583 -0.863851
34400000 0.287617 -0.92639
36200000 0.099733 -0.945994
38000000 -0.076964 -0.92891
39800000 -0.238987 -0.886291
41600000 -0.38578 -0.818027
43400000 -0.517125 -0.728863
45200000 -0.627957 -0.619889
47000000 -0.713256 -0.497166
48800000 -0.774335 -0.363271
50600000 -0.803296 -0.229741
52400000 -0.809003 -0.114918
54200000 -0.824485 -0.001797
56000000 -0.823434 0.124019
57800000 -0.79905 0.252117
59600000 -0.756267 0.375689
61400000 -0.695703 0.493117
63200000 -0.61424 0.601887
65000000 -0.514583 0.696059
66800000 -0.400626 0.775979
68600000 -0.274045 0.836025
70400000 -0.139727 0.87729
72200000 0.004205 0.896894
74000000 0.152167 0.892423
75800000 0.300739 0.862661
77600000 0.443624 0.80867
79400000 0.580839 0.726908
81200000 0.699158 0.620937
83000000 0.797179 0.494898
84800000 0.871867 0.349847
86600000 0.920061 0.195417
88400000 0.937697 0.033003
90200000 0.925133 -0.129029
92000000 0.883495 -0.285714
93800000 0.813628 -0.430166
95600000 0.718571 -0.562186
97400000 0.597852 -0.674716
99200000 0.448924 -0.769314
101000000 0.237046 -0.832153
102800000 -0.073972 -0.624462
104600000 0.263043 -0.536948
106400000 0.167316 -0.731954
108200000 0.013854 -0.788486
110000000 -0.132102 -0.783184
111800000 -0.257446 -0.745158
113600000 -0.364272 -0.688353
115400000 -0.453424 -0.624281
117200000 -0.532412 -0.555254
119000000 -0.60837 -0.478078
120800000 -0.674601 -0.386106
122600000 -0.725418 -0.278106
124400000 -0.755685 -0.165053
126200000 -0.764564 -0.049695
128000000 -0.756843 0.0605
129800000 -0.732876 0.171579
131600000 -0.689125 0.276238
133400000 -0.627168 0.358739
135200000 -0.555602 0.422927
137000000 -0.492431 0.487862
138800000 -0.417964 0.547095
140600000 -0.332089 0.59337
142400000 -0.241806 0.621266
144200000 -0.150153 0.633211
146000000 -0.064756 0.621299
147800000 -0.005725 0.59974
149600000 0.043235 0.587271
151400000 0.081125 0.587372
153200000 0.132133 0.608348
155000000 0.213748 0.62854
156800000 0.317733 0.627286
158600000 0.428864 0.599781
160400000 0.542823 0.54059
162200000 0.640823 0.450554
164000000 0.716503 0.340834
165800000 0.769838 0.218135
167600000 0.796353 0.087656
169400000 0.794746 -0.042425
171200000 0.773938 -0.162272
173000000 0.73771 -0.276945
174800000 0.685167 -0.385234
176600000 0.615471 -0.481391
178400000 0.536067 -0.566333
180200000 0.444564 -0.638911
182000000 0.342547 -0.697678
183800000 0.230526 -0.740371
185600000 0.114211 -0.761399
187400000 -0.002072 -0.764324
189200000 -0.115134 -0.748082
191000000 -0.22364 -0.716254
192800000 -0.324176 -0.667953
194600000 -0.412528 -0.605812
196400000 -0.49019 -0.534523
198200000 -0.555229 -0.450541
200000000 -0.601271 -0.360094
