# HZ S RI R 50
20000000 0.896702 0.473481
21800000 0.98522 0.253885
23600000 1.022858 0.024625
25400000 1.000994 -0.205907
27200000 0.926033 -0.420687
29000000 0.806428 -0.609221
30800000 0.650983 -0.755952
32600000 0.474525 -0.862336
34400000 0.286603 -0.926736
36200000 0.083464 -0.94299
38000000 -0.076762 -0.92693
39800000 -0.236763 -0.886247
41600000 -0.384511 -0.819021
43400000 -0.528967 -0.718267
45200000 -0.616779 -0.635026
47000000 -0.714742 -0.500123
48800000 -0.774895 -0.367436
50600000 -0.809594 -0.232095
52400000 -0.817487 -0.106559
54200000 -0.823665 0.005433
56000000 -0.820301 0.12734
57800000 -0.797022 0.25069
59600000 -0.756064 0.375061
61400000 -0.694352 0.490078
63200000 -0.61522 0.599433
65000000 -0.516019 0.695639
66800000 -0.401755 0.775128
68600000 -0.276204 0.837117
70400000 -0.138178 0.876627
72200000 0.00339 0.89617
74000000 0.152891 0.89258
75800000 0.299135 0.863582
77600000 0.444682 0.80884
79400000 0.579662 0.72698
81200000 0.699311 0.622282
83000000 0.798432 0.495024
84800000 0.872918 0.351267
86600000 0.920796 0.195292
88400000 0.938378 0.031864
90200000 0.926893 -0.130751
92000000 0.883447 -0.288898
93800000 0.812536 -0.434636
95600000 0.716838 -0.565769
97400000 0.595097 -0.6796
99200000 0.441334 -0.772575
101000000 0.220096 -0.83144
102800000 -0.052248 -0.57621
104600000 0.251852 -0.551369
106400000 0.168269 -0.725173
108200000 0.022993 -0.785898
110000000 -0.12546 -0.788999
111800000 -0.256587 -0.750094
113600000 -0.364495 -0.691598
115400000 -0.449951 -0.626877
117200000 -0.533131 -0.564124
119000000 -0.615414 -0.484179
120800000 -0.682647 -0.38644
122600000 -0.731469 -0.277023
124400000 -0.759628 -0.163809
126200000 -0.769198 -0.049481
128000000 -0.763384 0.063877
129800000 -0.73771 0.174551
131600000 -0.695211 0.279102
133400000 -0.634341 0.370954
135200000 -0.555349 0.43911
137000000 -0.482088 0.501362
138800000 -0.404685 0.554482
140600000 -0.318959 0.596202
142400000 -0.228302 0.620318
144200000 -0.136851 0.628493
146000000 -0.049804 0.611181
147800000 0.000927 0.581482
149600000 0.042802 0.573844
151400000 0.082738 0.571335
153200000 0.126818 0.588139
155000000 0.196926 0.612832
156800000 0.297359 0.620008
158600000 0.408251 0.601538
160400000 0.524638 0.54885
162200000 0.628955 0.462941
164000000 0.71001 0.355675
165800000 0.769376 0.233888
167600000 0.799605 0.101425
169400000 0.801873 -0.031407
171200000 0.783578 -0.156127
173000000 0.746499 -0.273842
174800000 0.692124 -0.382856
176600000 0.621895 -0.480593
178400000 0.542429 -0.566394
180200000 0.451693 -0.639261
182000000 0.350332 -0.700307
183800000 0.236503 -0.744977
185600000 0.118784 -0.765796
187400000 0.002355 -0.769273
189200000 -0.111283 -0.754275
191000000 -0.219792 -0.725091
192800000 -0.322649 -0.678561
194600000 -0.413745 -0.618056
196400000 -0.495664 -0.545325
198200000 -0.563139 -0.460333
200000000 -0.61308 -0.369708
