# HZ S RI R 50
20000000 0.894837 0.47247
21800000 0.986153 0.257017
23600000 1.023793 0.024001
25400000 1.001092 -0.20673
27200000 0.92497 -0.421282
29000000 0.806165 -0.609325
30800000 0.651723 -0.756526
32600000 0.475675 -0.862133
34400000 0.287517 -0.926552
36200000 0.098602 -0.946369
38000000 -0.078276 -0.927127
39800000 -0.237459 -0.884833
41600000 -0.38361 -0.818295
43400000 -0.515887 -0.731073
45200000 -0.625158 -0.621864
47000000 -0.713321 -0.49997
48800000 -0.775388 -0.369347
50600000 -0.810947 -0.233242
52400000 -0.818646 -0.10745
54200000 -0.825172 0.004562
56000000 -0.821911 0.128021
57800000 -0.797989 0.253289
59600000 -0.754823 0.376539
61400000 -0.694104 0.491965
63200000 -0.612197 0.600184
65000000 -0.514769 0.695888
66800000 -0.401503 0.775481
68600000 -0.275017 0.837078
70400000 -0.140208 0.877006
72200000 0.004651 0.896789
74000000 0.152577 0.891646
75800000 0.301112 0.863268
77600000 0.445296 0.80815
79400000 0.580711 0.726972
81200000 0.699967 0.621439
83000000 0.799488 0.492756
84800000 0.873617 0.350072
86600000 0.921174 0.194852
88400000 0.939239 0.031397
90200000 0.925629 -0.132884
92000000 0.882481 -0.290123
93800000 0.793309 -0.462317
95600000 0.713259 -0.568041
97400000 0.590722 -0.682005
99200000 0.437978 -0.773973
101000000 0.212758 -0.829804
102800000 -0.033942 -0.572157
104600000 0.226634 -0.541579
106400000 0.168616 -0.705265
108200000 0.031415 -0.775778
110000000 -0.11469 -0.78504
111800000 -0.244971 -0.750432
113600000 -0.3552 -0.692529
115400000 -0.443557 -0.63267
117200000 -0.527324 -0.5687
119000000 -0.611008 -0.49
120800000 -0.678887 -0.39297
122600000 -0.730624 -0.285477
124400000 -0.762239 -0.172816
126200000 -0.774166 -0.055952
128000000 -0.768439 0.059121
129800000 -0.745239 0.169873
131600000 -0.702996 0.273369
133400000 -0.647935 0.366471
135200000 -0.57165 0.444251
137000000 -0.494795 0.513923
138800000 -0.411288 0.571452
140600000 -0.318692 0.614812
142400000 -0.22184 0.640546
144200000 -0.118332 0.647513
146000000 -0.020694 0.615602
147800000 0.024349 0.571057
149600000 0.058595 0.559612
151400000 0.092447 0.552818
153200000 0.125917 0.567586
155000000 0.188251 0.596938
156800000 0.283348 0.611133
158600000 0.395563 0.597639
160400000 0.514936 0.547968
162200000 0.618191 0.463699
164000000 0.701456 0.359051
165800000 0.759111 0.237666
167600000 0.790766 0.109963
169400000 0.797832 -0.01953
171200000 0.784656 -0.145078
173000000 0.750786 -0.265147
174800000 0.698333 -0.377726
176600000 0.629745 -0.477393
178400000 0.549076 -0.564778
180200000 0.455986 -0.640179
182000000 0.354113 -0.702259
183800000 0.239739 -0.746739
185600000 0.121409 -0.767556
187400000 0.00503 -0.770135
189200000 -0.108083 -0.75528
191000000 -0.215173 -0.725823
192800000 -0.317481 -0.68081
194600000 -0.40894 -0.622755
196400000 -0.489265 -0.551974
198200000 -0.557392 -0.470576
200000000 -0.608616 -0.385379
