# HZ S RI R 50
20000000 0.897783 0.47318
21800000 0.985813 0.254569
23600000 1.02255 0.025977
25400000 1.000976 -0.206209
27200000 0.926237 -0.420634
29000000 0.806401 -0.608255
30800000 0.651743 -0.756618
32600000 0.474649 -0.861767
34400000 0.287091 -0.926496
36200000 0.099796 -0.944607
38000000 -0.074855 -0.928313
39800000 -0.237514 -0.886575
41600000 -0.385447 -0.818537
43400000 -0.516763 -0.730622
45200000 -0.626952 -0.622129
47000000 -0.704968 -0.512819
48800000 -0.774155 -0.368871
50600000 -0.803769 -0.247369
52400000 -0.815159 -0.125382
54200000 -0.826246 -0.011698
56000000 -0.826636 0.111169
57800000 -0.806019 0.239476
59600000 -0.764637 0.363557
61400000 -0.69543 0.493573
63200000 -0.613835 0.601369
65000000 -0.514335 0.696368
66800000 -0.400153 0.775571
68600000 -0.274324 0.836266
70400000 -0.13721 0.876662
72200000 0.00598 0.895755
74000000 0.152192 0.891827
75800000 0.300873 0.863476
77600000 0.444361 0.808371
79400000 0.57944 0.726518
81200000 0.699202 0.62095
83000000 0.798237 0.493261
84800000 0.873885 0.349395
86600000 0.920428 0.195582
88400000 0.939484 0.030947
90200000 0.927441 -0.131938
92000000 0.88313 -0.290013
93800000 0.811825 -0.436571
95600000 0.714341 -0.568249
97400000 0.589507 -0.681015
99200000 0.434942 -0.775047
101000000 0.201711 -0.827205
102800000 -0.022327 -0.55828
104600000 0.22307 -0.537434
106400000 0.173747 -0.696076
108200000 0.040308 -0.768822
110000000 -0.106384 -0.782273
111800000 -0.237365 -0.749712
113600000 -0.345855 -0.698548
115400000 -0.438848 -0.638359
117200000 -0.522695 -0.574248
119000000 -0.608651 -0.495423
120800000 -0.675072 -0.400912
122600000 -0.72704 -0.294447
124400000 -0.761942 -0.183606
126200000 -0.778874 -0.070837
128000000 -0.778072 0.046237
129800000 -0.758934 0.160774
131600000 -0.721718 0.269915
133400000 -0.667699 0.369598
135200000 -0.589746 0.45231
137000000 -0.510468 0.528707
138800000 -0.419641 0.592711
140600000 -0.318886 0.637589
142400000 -0.211828 0.659489
144200000 -0.108008 0.660626
146000000 -0.009086 0.632034
147800000 0.05337 0.582189
149600000 0.087779 0.547978
151400000 0.108549 0.529707
153200000 0.130395 0.543023
155000000 0.181458 0.576816
156800000 0.272398 0.59717
158600000 0.383439 0.59013
160400000 0.50242 0.545102
162200000 0.607942 0.46434
164000000 0.69116 0.362215
165800000 0.750633 0.243863
167600000 0.784479 0.117745
169400000 0.79597 -0.008963
171200000 0.786651 -0.135612
173000000 0.75519 -0.259197
174800000 0.702647 -0.373258
176600000 0.633607 -0.473485
178400000 0.553755 -0.562808
180200000 0.462856 -0.638802
182000000 0.359764 -0.701641
183800000 0.246932 -0.745917
185600000 0.129761 -0.771548
187400000 0.010795 -0.77596
189200000 -0.104672 -0.763268
191000000 -0.214925 -0.734275
192800000 -0.317832 -0.689863
194600000 -0.412571 -0.63037
196400000 -0.495812 -0.558237
198200000 -0.566456 -0.475546
200000000 -0.618953 -0.38655
