# HZ S RI R 50
20000000 0.896385 0.473735
21800000 0.983458 0.255476
23600000 1.021005 0.025429
25400000 1.001004 -0.206476
27200000 0.926041 -0.42111
29000000 0.805263 -0.606901
30800000 0.652539 -0.755605
32600000 0.474024 -0.862177
34400000 0.28729 -0.925591
36200000 0.098706 -0.94575
38000000 -0.076366 -0.928255
39800000 -0.238535 -0.886039
41600000 -0.384398 -0.81847
43400000 -0.516405 -0.730602
45200000 -0.625322 -0.621819
47000000 -0.713661 -0.498319
48800000 -0.772828 -0.36718
50600000 -0.806899 -0.233073
52400000 -0.815157 -0.11137
54200000 -0.826281 0.0013
56000000 -0.823457 0.126971
57800000 -0.797948 0.254174
59600000 -0.755279 0.375676
61400000 -0.695594 0.492671
63200000 -0.613342 0.601536
65000000 -0.514083 0.697663
66800000 -0.40007 0.774683
68600000 -0.274841 0.836376
70400000 -0.138248 0.876422
72200000 0.003664 0.896606
74000000 0.1516 0.892914
75800000 0.30004 0.864126
77600000 0.444803 0.808656
79400000 0.580306 0.727259
81200000 0.698751 0.622139
83000000 0.790758 0.508961
84800000 0.873662 0.350131
86600000 0.92242 0.193734
88400000 0.937968 0.031101
90200000 0.92682 -0.133132
92000000 0.883472 -0.289536
93800000 0.812537 -0.4366
95600000 0.713328 -0.567545
97400000 0.590423 -0.683947
99200000 0.430601 -0.778455
101000000 0.185275 -0.823944
102800000 0.012036 -0.494387
104600000 0.256596 -0.584384
106400000 0.162138 -0.72795
108200000 0.021551 -0.78574
110000000 -0.125478 -0.787904
111800000 -0.2543 -0.750036
113600000 -0.359184 -0.692285
115400000 -0.446032 -0.632584
117200000 -0.532886 -0.571346
119000000 -0.617521 -0.485986
120800000 -0.683588 -0.386774
122600000 -0.733643 -0.278026
124400000 -0.76169 -0.165177
126200000 -0.771438 -0.048611
128000000 -0.76489 0.065253
129800000 -0.73916 0.177126
131600000 -0.695602 0.281369
133400000 -0.637099 0.372947
135200000 -0.556749 0.444859
137000000 -0.47958 0.508026
138800000 -0.396606 0.558534
140600000 -0.307831 0.595022
142400000 -0.219374 0.612804
144200000 -0.132774 0.618494
146000000 -0.054632 0.599589
147800000 -0.012913 0.577715
149600000 0.03007 0.582826
151400000 0.078074 0.58442
153200000 0.11946 0.608518
155000000 0.203142 0.632137
156800000 0.310573 0.632567
158600000 0.425064 0.603639
160400000 0.539245 0.541649
162200000 0.634199 0.454091
164000000 0.712264 0.34685
165800000 0.764912 0.225079
167600000 0.792902 0.097187
169400000 0.794707 -0.03017
171200000 0.777968 -0.153523
173000000 0.744065 -0.268301
174800000 0.692377 -0.377663
176600000 0.627487 -0.477232
178400000 0.547818 -0.565788
180200000 0.455337 -0.641416
182000000 0.352266 -0.702981
183800000 0.237618 -0.747606
185600000 0.118325 -0.768988
187400000 0.001034 -0.770931
189200000 -0.113486 -0.755231
191000000 -0.221493 -0.72319
192800000 -0.320717 -0.67629
194600000 -0.408663 -0.615263
196400000 -0.486446 -0.546278
198200000 -0.550632 -0.468232
200000000 -0.604439 -0.387872
