# HZ S RI R 50
20000000 0.895882 0.473155
21800000 0.984399 0.2548
23600000 1.020994 0.02522
25400000 1.000992 -0.205594
27200000 0.92602 -0.420284
29000000 0.80541 -0.608471
30800000 0.651531 -0.754609
32600000 0.476636 -0.863012
34400000 0.286586 -0.925911
36200000 0.100622 -0.944392
38000000 -0.076434 -0.928619
39800000 -0.238333 -0.887558
41600000 -0.385721 -0.818858
43400000 -0.516595 -0.731218
45200000 -0.625772 -0.621545
47000000 -0.712882 -0.499389
48800000 -0.774952 -0.366831
50600000 -0.807401 -0.232632
52400000 -0.814587 -0.111912
54200000 -0.82521 0.000957
56000000 -0.823549 0.124898
57800000 -0.799341 0.253802
59600000 -0.755055 0.375913
61400000 -0.695522 0.493183
63200000 -0.613328 0.601374
65000000 -0.514342 0.696693
66800000 -0.400429 0.774622
68600000 -0.273878 0.835103
70400000 -0.138353 0.875372
72200000 0.003492 0.895246
74000000 0.150336 0.890774
75800000 0.298999 0.863158
77600000 0.443536 0.807748
79400000 0.578683 0.72709
81200000 0.698239 0.621563
83000000 0.798282 0.495485
84800000 0.871992 0.350515
86600000 0.920411 0.196149
88400000 0.938812 0.031788
90200000 0.926322 -0.13151
92000000 0.883138 -0.288193
93800000 0.81253 -0.43592
95600000 0.715327 -0.567955
97400000 0.590047 -0.682955
99200000 0.431976 -0.777952
101000000 0.184929 -0.823468
102800000 0.015918 -0.492222
104600000 0.255907 -0.589443
106400000 0.157862 -0.730838
108200000 0.017559 -0.784282
110000000 -0.126128 -0.784132
111800000 -0.252856 -0.745976
113600000 -0.358539 -0.688966
115400000 -0.445129 -0.628898
117200000 -0.528474 -0.56673
119000000 -0.610928 -0.488376
120800000 -0.681165 -0.391049
122600000 -0.730906 -0.281641
124400000 -0.762533 -0.167681
126200000 -0.772098 -0.04966
128000000 -0.765124 0.064275
129800000 -0.738921 0.174944
131600000 -0.694604 0.278646
133400000 -0.635154 0.369929
135200000 -0.555408 0.440481
137000000 -0.479605 0.502616
138800000 -0.399745 0.552426
140600000 -0.316124 0.589475
142400000 -0.230176 0.610326
144200000 -0.144817 0.620076
146000000 -0.061457 0.603991
147800000 -0.021265 0.582085
149600000 0.024176 0.591175
151400000 0.077168 0.597622
153200000 0.134351 0.614113
155000000 0.217442 0.628924
156800000 0.32055 0.623562
158600000 0.427512 0.593951
160400000 0.538924 0.535042
162200000 0.634393 0.447457
164000000 0.709411 0.339741
165800000 0.760852 0.219199
167600000 0.786243 0.091655
169400000 0.786167 -0.03094
171200000 0.771307 -0.147367
173000000 0.74197 -0.261179
174800000 0.695215 -0.370992
176600000 0.633179 -0.473298
178400000 0.553181 -0.565909
180200000 0.460435 -0.643328
182000000 0.355008 -0.70742
183800000 0.238194 -0.752237
185600000 0.116655 -0.772799
187400000 -0.000523 -0.773649
189200000 -0.114196 -0.756938
191000000 -0.221689 -0.725119
192800000 -0.32284 -0.678875
194600000 -0.413185 -0.620729
196400000 -0.494333 -0.549305
198200000 -0.560596 -0.468126
200000000 -0.615413 -0.382956
