# HZ S RI R 50
20000000 0.896283 0.47241
21800000 0.985757 0.254616
23600000 1.021279 0.026521
25400000 1.000738 -0.205371
27200000 0.927163 -0.419669
29000000 0.805663 -0.6068
30800000 0.651839 -0.75618
32600000 0.475342 -0.861645
34400000 0.288294 -0.926107
36200000 0.099942 -0.946597
38000000 -0.077349 -0.928552
39800000 -0.237243 -0.884873
41600000 -0.384105 -0.818188
43400000 -0.515993 -0.729181
45200000 -0.627763 -0.622089
47000000 -0.712327 -0.498157
48800000 -0.773883 -0.366405
50600000 -0.807416 -0.232952
52400000 -0.81504 -0.110058
54200000 -0.823759 0.001117
56000000 -0.821877 0.124787
57800000 -0.799732 0.252796
59600000 -0.756109 0.375046
61400000 -0.69581 0.492465
63200000 -0.614493 0.601271
65000000 -0.51428 0.696527
66800000 -0.400355 0.774432
68600000 -0.273474 0.835662
70400000 -0.138289 0.876382
72200000 0.003731 0.894692
74000000 0.149363 0.892318
75800000 0.300247 0.863543
77600000 0.444277 0.808169
79400000 0.57752 0.72643
81200000 0.699324 0.622236
83000000 0.798279 0.494131
84800000 0.873649 0.350959
86600000 0.919876 0.195727
88400000 0.938991 0.031796
90200000 0.927689 -0.131609
92000000 0.88322 -0.290223
93800000 0.812475 -0.435114
95600000 0.71634 -0.567091
97400000 0.591431 -0.681702
99200000 0.433057 -0.776942
101000000 0.188557 -0.823708
102800000 0.019474 -0.49058
104600000 0.252011 -0.593967
106400000 0.155634 -0.72898
108200000 0.019956 -0.781352
110000000 -0.12294 -0.785064
111800000 -0.253444 -0.751407
113600000 -0.362761 -0.692638
115400000 -0.449585 -0.626217
117200000 -0.528647 -0.562546
119000000 -0.609452 -0.487619
120800000 -0.678444 -0.389072
122600000 -0.731763 -0.282223
124400000 -0.762705 -0.165977
126200000 -0.771305 -0.048628
128000000 -0.764573 0.066337
129800000 -0.73814 0.176873
131600000 -0.690425 0.280504
133400000 -0.629867 0.368947
135200000 -0.551293 0.435706
137000000 -0.479304 0.494187
138800000 -0.406388 0.545562
140600000 -0.324412 0.587536
142400000 -0.227233 0.617194
144200000 -0.150198 0.626452
146000000 -0.054557 0.61379
147800000 -0.027107 0.597075
149600000 0.048845 0.596175
151400000 0.090889 0.590839
153200000 0.149945 0.598153
155000000 0.213639 0.61928
156800000 0.31151 0.620742
158600000 0.422371 0.595535
160400000 0.536138 0.538766
162200000 0.634874 0.45017
164000000 0.712489 0.341021
165800000 0.761569 0.218597
167600000 0.787539 0.091918
169400000 0.786059 -0.031911
171200000 0.771018 -0.148484
173000000 0.739623 -0.263135
174800000 0.693087 -0.370504
176600000 0.629807 -0.472797
178400000 0.551172 -0.563333
180200000 0.457817 -0.640298
182000000 0.354057 -0.703771
183800000 0.240183 -0.747467
185600000 0.120913 -0.768974
187400000 0.004531 -0.772575
189200000 -0.109594 -0.758738
191000000 -0.218666 -0.728328
192800000 -0.320688 -0.682811
194600000 -0.412373 -0.623827
196400000 -0.493412 -0.553943
198200000 -0.562545 -0.473318
200000000 -0.618343 -0.386967
