# HZ S RI R 50
20000000 0.895118 0.472494
21800000 0.984297 0.255323
23600000 1.021696 0.024527
25400000 1.001166 -0.206042
27200000 0.925476 -0.420269
29000000 0.805926 -0.606996
30800000 0.652148 -0.755977
32600000 0.474423 -0.862913
34400000 0.288419 -0.925332
36200000 0.100232 -0.944746
38000000 -0.076218 -0.928869
39800000 -0.238686 -0.886938
41600000 -0.384324 -0.81793
43400000 -0.516186 -0.729381
45200000 -0.626187 -0.620765
47000000 -0.712981 -0.498303
48800000 -0.774334 -0.36675
50600000 -0.806748 -0.23171
52400000 -0.814935 -0.110157
54200000 -0.826311 0.001112
56000000 -0.822533 0.125805
57800000 -0.798376 0.253023
59600000 -0.756148 0.375349
61400000 -0.695362 0.492737
63200000 -0.61455 0.601959
65000000 -0.514124 0.696499
66800000 -0.400344 0.775351
68600000 -0.274836 0.835191
70400000 -0.138994 0.876324
72200000 0.00295 0.895751
74000000 0.15052 0.891908
75800000 0.299059 0.864263
77600000 0.442609 0.808573
79400000 0.579815 0.727333
81200000 0.697932 0.621592
83000000 0.798614 0.495309
84800000 0.872477 0.350824
86600000 0.921346 0.194913
88400000 0.938281 0.03317
90200000 0.926565 -0.131288
92000000 0.883919 -0.288736
93800000 0.81263 -0.43443
95600000 0.716174 -0.567017
97400000 0.593144 -0.681452
99200000 0.433277 -0.777145
101000000 0.193887 -0.826006
102800000 0.003276 -0.493182
104600000 0.26379 -0.59133
106400000 0.154573 -0.737616
108200000 0.014363 -0.786337
110000000 -0.130045 -0.784709
111800000 -0.256726 -0.746323
113600000 -0.362975 -0.688644
115400000 -0.447867 -0.624425
117200000 -0.528457 -0.562668
119000000 -0.611433 -0.484222
120800000 -0.680635 -0.38576
122600000 -0.729645 -0.278884
124400000 -0.758047 -0.164011
126200000 -0.768489 -0.048643
128000000 -0.761306 0.064288
129800000 -0.735209 0.175218
131600000 -0.689526 0.279363
133400000 -0.629181 0.366815
135200000 -0.550661 0.434125
137000000 -0.476755 0.49264
138800000 -0.403424 0.540366
140600000 -0.324585 0.579922
142400000 -0.242451 0.605062
144200000 -0.159571 0.619494
146000000 -0.078825 0.608228
147800000 -0.03405 0.598612
149600000 0.022377 0.608177
151400000 0.077878 0.613884
153200000 0.145573 0.630172
155000000 0.23339 0.63881
156800000 0.338258 0.625189
158600000 0.443281 0.588963
160400000 0.549485 0.524099
162200000 0.640002 0.435951
164000000 0.71005 0.328695
165800000 0.758007 0.209921
167600000 0.781341 0.08587
169400000 0.781889 -0.037477
171200000 0.764121 -0.1529
173000000 0.732995 -0.263984
174800000 0.686977 -0.371346
176600000 0.623485 -0.470828
178400000 0.546368 -0.559299
180200000 0.455442 -0.635941
182000000 0.354425 -0.698129
183800000 0.241853 -0.743819
185600000 0.124731 -0.767848
187400000 0.006189 -0.772597
189200000 -0.107204 -0.759542
191000000 -0.218184 -0.73048
192800000 -0.321455 -0.685983
194600000 -0.414627 -0.625977
196400000 -0.49755 -0.553852
198200000 -0.56864 -0.472337
200000000 -0.624012 -0.382156
