# HZ S RI R 50
20000000 0.896623 0.472481
21800000 0.985208 0.255074
23600000 1.020848 0.025287
25400000 1.004816 -0.189834
27200000 0.925777 -0.421831
29000000 0.805723 -0.607285
30800000 0.651652 -0.756069
32600000 0.476097 -0.861843
34400000 0.286868 -0.925666
36200000 0.099118 -0.945633
38000000 -0.076029 -0.927395
39800000 -0.237832 -0.885238
41600000 -0.384609 -0.819126
43400000 -0.516661 -0.729666
45200000 -0.626713 -0.622187
47000000 -0.713549 -0.499849
48800000 -0.774327 -0.368319
50600000 -0.806902 -0.231444
52400000 -0.81481 -0.108913
54200000 -0.823468 0.001695
56000000 -0.820342 0.1256
57800000 -0.797792 0.252351
59600000 -0.755635 0.375642
61400000 -0.694293 0.491927
63200000 -0.614156 0.602771
65000000 -0.515407 0.696698
66800000 -0.400895 0.774948
68600000 -0.274362 0.834619
70400000 -0.139328 0.876708
72200000 0.003818 0.895916
74000000 0.151023 0.891669
75800000 0.299141 0.864488
77600000 0.443686 0.808729
79400000 0.579135 0.728201
81200000 0.697888 0.621612
83000000 0.797865 0.495827
84800000 0.873451 0.350847
86600000 0.920282 0.196293
88400000 0.939994 0.033561
90200000 0.927058 -0.130266
92000000 0.883507 -0.288212
93800000 0.814281 -0.433855
95600000 0.716089 -0.567721
97400000 0.592829 -0.681852
99200000 0.434673 -0.77744
101000000 0.196257 -0.826029
102800000 -0.000223 -0.503726
104600000 0.25469 -0.587993
106400000 0.154939 -0.731987
108200000 0.017757 -0.784304
110000000 -0.127394 -0.78441
111800000 -0.256843 -0.747638
113600000 -0.362951 -0.687229
115400000 -0.449018 -0.623655
117200000 -0.529117 -0.560236
119000000 -0.610404 -0.481883
120800000 -0.678914 -0.385859
122600000 -0.728192 -0.27813
124400000 -0.757075 -0.165009
126200000 -0.767024 -0.051595
128000000 -0.759784 0.061605
129800000 -0.735185 0.17169
131600000 -0.691334 0.275386
133400000 -0.63134 0.36432
135200000 -0.553131 0.431193
137000000 -0.481584 0.489863
138800000 -0.408832 0.540134
140600000 -0.329607 0.582238
142400000 -0.24547 0.609311
144200000 -0.161597 0.621854
146000000 -0.08269 0.614677
147800000 -0.032718 0.607337
149600000 0.02625 0.615631
151400000 0.086261 0.619254
153200000 0.155473 0.629864
155000000 0.241838 0.63457
156800000 0.342669 0.618832
158600000 0.444961 0.583258
160400000 0.549465 0.520403
162200000 0.6396 0.432333
164000000 0.711001 0.325653
165800000 0.758856 0.206186
167600000 0.780908 0.081056
169400000 0.78032 -0.041218
171200000 0.760422 -0.155664
173000000 0.727686 -0.26565
174800000 0.682714 -0.370026
176600000 0.621289 -0.46877
178400000 0.546215 -0.557825
180200000 0.455635 -0.635626
182000000 0.354081 -0.698844
183800000 0.240342 -0.745113
185600000 0.121443 -0.769488
187400000 0.002073 -0.773938
189200000 -0.113282 -0.758736
191000000 -0.224293 -0.728224
192800000 -0.327988 -0.680429
194600000 -0.420237 -0.617537
196400000 -0.500701 -0.544342
198200000 -0.567277 -0.458709
200000000 -0.617878 -0.369368
