# HZ S RI R 50
20000000 0.89516 0.473845
21800000 0.984414 0.255241
23600000 1.021818 0.026555
25400000 1.000834 -0.205589
27200000 0.925989 -0.421686
29000000 0.80665 -0.607695
30800000 0.652803 -0.755311
32600000 0.474501 -0.861929
34400000 0.287343 -0.926494
36200000 0.099763 -0.945587
38000000 -0.076148 -0.92818
39800000 -0.238105 -0.88539
41600000 -0.384133 -0.819268
43400000 -0.516593 -0.729825
45200000 -0.626981 -0.621717
47000000 -0.712445 -0.498761
48800000 -0.773233 -0.367297
50600000 -0.806806 -0.232395
52400000 -0.813418 -0.111253
54200000 -0.825551 0.000276
56000000 -0.824307 0.1262
57800000 -0.800486 0.253407
59600000 -0.756539 0.376118
61400000 -0.695772 0.492601
63200000 -0.613773 0.603229
65000000 -0.513029 0.697644
66800000 -0.399378 0.776697
68600000 -0.273855 0.836125
70400000 -0.137909 0.875616
72200000 0.004146 0.894371
74000000 0.151058 0.8909
75800000 0.299815 0.863325
77600000 0.443297 0.80736
79400000 0.578155 0.728133
81200000 0.697015 0.621883
83000000 0.797172 0.493468
84800000 0.872774 0.351859
86600000 0.919467 0.196246
88400000 0.938873 0.033679
90200000 0.926507 -0.129614
92000000 0.884578 -0.286908
93800000 0.813301 -0.435024
95600000 0.716358 -0.566338
97400000 0.59324 -0.680321
99200000 0.435492 -0.77633
101000000 0.19644 -0.826571
102800000 -0.012463 -0.507269
104600000 0.261693 -0.579013
106400000 0.159521 -0.730923
108200000 0.020302 -0.783136
110000000 -0.122628 -0.785529
111800000 -0.252507 -0.749954
113600000 -0.360934 -0.694567
115400000 -0.450805 -0.628438
117200000 -0.527732 -0.560421
119000000 -0.608025 -0.483513
120800000 -0.677386 -0.388481
122600000 -0.726149 -0.282617
124400000 -0.757073 -0.170575
126200000 -0.767479 -0.057125
128000000 -0.765759 0.055694
129800000 -0.743855 0.166267
131600000 -0.704453 0.272845
133400000 -0.645465 0.367374
135200000 -0.566226 0.440632
137000000 -0.490575 0.50625
138800000 -0.412154 0.558476
140600000 -0.327401 0.602187
142400000 -0.236166 0.628075
144200000 -0.144952 0.63962
146000000 -0.053604 0.62755
147800000 0.002632 0.60131
149600000 0.054727 0.593833
151400000 0.101559 0.586099
153200000 0.150848 0.595888
155000000 0.224015 0.607668
156800000 0.307504 0.612433
158600000 0.431176 0.571397
160400000 0.522281 0.536087
162200000 0.627817 0.441309
164000000 0.698497 0.348609
165800000 0.758455 0.201098
167600000 0.778726 0.102369
169400000 0.775835 -0.047948
171200000 0.764654 -0.136206
173000000 0.730028 -0.258888
174800000 0.68681 -0.365553
176600000 0.62602 -0.464971
178400000 0.549521 -0.557584
180200000 0.458957 -0.634885
182000000 0.35642 -0.699944
183800000 0.241942 -0.745135
185600000 0.122256 -0.769424
187400000 0.003087 -0.77224
189200000 -0.11184 -0.757184
191000000 -0.221184 -0.72592
192800000 -0.324085 -0.679243
194600000 -0.415589 -0.616805
196400000 -0.494999 -0.545143
198200000 -0.561796 -0.463927
200000000 -0.613564 -0.375932
