# HZ S RI R 50
20000000 0.895706 0.472369
21800000 0.984732 0.254687
23600000 1.022029 0.025887
25400000 1.001566 -0.207148
27200000 0.92566 -0.420703
29000000 0.805231 -0.607663
30800000 0.651557 -0.756084
32600000 0.474565 -0.862331
34400000 0.287745 -0.92752
36200000 0.099866 -0.946056
38000000 -0.076803 -0.929609
39800000 -0.236806 -0.885593
41600000 -0.384591 -0.819528
43400000 -0.515314 -0.729367
45200000 -0.624724 -0.622148
47000000 -0.713446 -0.498995
48800000 -0.775049 -0.368471
50600000 -0.807575 -0.233024
52400000 -0.815335 -0.11075
54200000 -0.825276 1.5e-05
56000000 -0.822635 0.125573
57800000 -0.799567 0.253272
59600000 -0.755703 0.376507
61400000 -0.696317 0.491552
63200000 -0.613292 0.602035
65000000 -0.514922 0.696609
66800000 -0.400891 0.77441
68600000 -0.273832 0.836201
70400000 -0.139674 0.875183
72200000 0.003735 0.894433
74000000 0.151659 0.891455
75800000 0.298578 0.863562
77600000 0.443736 0.808738
79400000 0.578729 0.727526
81200000 0.699402 0.621802
83000000 0.797343 0.496046
84800000 0.872115 0.351018
86600000 0.920819 0.195256
88400000 0.938522 0.032409
90200000 0.926649 -0.130859
92000000 0.882437 -0.28846
93800000 0.813028 -0.434792
95600000 0.715612 -0.565138
97400000 0.592512 -0.680879
99200000 0.43595 -0.776686
101000000 0.197638 -0.827246
102800000 -0.016483 -0.519046
104600000 0.255647 -0.569447
106400000 0.166868 -0.723707
108200000 0.025353 -0.784791
110000000 -0.118285 -0.787667
111800000 -0.248577 -0.751912
113600000 -0.358767 -0.697267
115400000 -0.450498 -0.631031
117200000 -0.530414 -0.564282
119000000 -0.611454 -0.487393
120800000 -0.679331 -0.390727
122600000 -0.729053 -0.283926
124400000 -0.761372 -0.170432
126200000 -0.77207 -0.054272
128000000 -0.7669 0.060362
129800000 -0.743023 0.171196
131600000 -0.699388 0.27607
133400000 -0.641428 0.368081
135200000 -0.561883 0.440871
137000000 -0.487542 0.503855
138800000 -0.41024 0.557283
140600000 -0.32526 0.600697
142400000 -0.233454 0.625697
144200000 -0.142484 0.636463
146000000 -0.054135 0.620685
147800000 -0.004682 0.596419
149600000 0.047839 0.597178
151400000 0.101582 0.589392
153200000 0.150415 0.594648
155000000 0.220306 0.609811
156800000 0.31529 0.609141
158600000 0.422146 0.58597
160400000 0.534006 0.531205
162200000 0.631829 0.443715
164000000 0.706581 0.336159
165800000 0.758999 0.21476
167600000 0.782489 0.086567
169400000 0.77961 -0.037107
171200000 0.762338 -0.151948
173000000 0.731118 -0.262018
174800000 0.685291 -0.367779
176600000 0.623368 -0.46911
178400000 0.545949 -0.557947
180200000 0.455445 -0.634581
182000000 0.352978 -0.697823
183800000 0.239563 -0.743412
185600000 0.120486 -0.766565
187400000 0.003375 -0.769543
189200000 -0.111406 -0.755233
191000000 -0.220994 -0.724321
192800000 -0.321866 -0.677492
194600000 -0.4143 -0.617684
196400000 -0.493137 -0.544071
198200000 -0.560083 -0.463003
200000000 -0.611784 -0.376595
