# HZ S RI R 50
20000000 0.896006 0.472627
21800000 0.984306 0.253407
23600000 1.022084 0.024773
25400000 1.000762 -0.206176
27200000 0.92523 -0.420967
29000000 0.806788 -0.607433
30800000 0.651705 -0.755869
32600000 0.475532 -0.863448
34400000 0.287091 -0.927185
36200000 0.097831 -0.94574
38000000 -0.076718 -0.926602
39800000 -0.237023 -0.885349
41600000 -0.383776 -0.819039
43400000 -0.516424 -0.730464
45200000 -0.62609 -0.621295
47000000 -0.713029 -0.498376
48800000 -0.774327 -0.367703
50600000 -0.806694 -0.233544
52400000 -0.814441 -0.1108
54200000 -0.825229 0.000991
56000000 -0.82338 0.124697
57800000 -0.799798 0.251901
59600000 -0.756972 0.375002
61400000 -0.696979 0.492534
63200000 -0.614559 0.602385
65000000 -0.514865 0.697115
66800000 -0.400293 0.774269
68600000 -0.274861 0.835082
70400000 -0.139241 0.877111
72200000 0.004742 0.895678
74000000 0.151813 0.893154
75800000 0.298951 0.864567
77600000 0.442833 0.809538
79400000 0.578905 0.727787
81200000 0.697493 0.622298
83000000 0.799209 0.494594
84800000 0.872933 0.351273
86600000 0.921274 0.196135
88400000 0.939213 0.032978
90200000 0.92698 -0.12999
92000000 0.883508 -0.287473
93800000 0.812584 -0.435024
95600000 0.715611 -0.565228
97400000 0.593573 -0.680695
99200000 0.435566 -0.775356
101000000 0.197123 -0.825977
102800000 -0.015356 -0.500773
104600000 0.27352 -0.584163
106400000 0.162805 -0.739841
108200000 0.01623 -0.79168
110000000 -0.12881 -0.7876
111800000 -0.259644 -0.75114
113600000 -0.365487 -0.690533
115400000 -0.452039 -0.626816
117200000 -0.533059 -0.5588
119000000 -0.612062 -0.480272
120800000 -0.67827 -0.383038
122600000 -0.723667 -0.2759
124400000 -0.752881 -0.165588
126200000 -0.762526 -0.053791
128000000 -0.758903 0.054569
129800000 -0.739598 0.166137
131600000 -0.697949 0.272811
133400000 -0.63929 0.366073
135200000 -0.559468 0.435063
137000000 -0.486414 0.495721
138800000 -0.413307 0.548679
140600000 -0.331767 0.592768
142400000 -0.242837 0.619541
144200000 -0.15594 0.632356
146000000 -0.071399 0.627065
147800000 -0.013415 0.614197
149600000 0.049133 0.612549
151400000 0.108114 0.603832
153200000 0.162841 0.603691
155000000 0.233917 0.610456
156800000 0.326721 0.603194
158600000 0.426771 0.577323
160400000 0.535778 0.522911
162200000 0.630188 0.437892
164000000 0.705619 0.33213
165800000 0.757375 0.21214
167600000 0.781611 0.082519
169400000 0.776994 -0.040802
171200000 0.759226 -0.154456
173000000 0.726925 -0.264742
174800000 0.680739 -0.369686
176600000 0.617266 -0.46825
178400000 0.540147 -0.556071
180200000 0.451314 -0.631018
182000000 0.352346 -0.693421
183800000 0.239094 -0.739667
185600000 0.121434 -0.763324
187400000 0.004621 -0.767051
189200000 -0.109287 -0.753663
191000000 -0.21831 -0.723394
192800000 -0.321381 -0.678057
194600000 -0.411657 -0.617312
196400000 -0.492315 -0.546347
198200000 -0.561989 -0.46506
200000000 -0.616133 -0.376389
