# HZ S RI R 50
20000000 0.897885 0.474934
21800000 0.984572 0.254942
23600000 1.022905 0.026957
25400000 1.001373 -0.206122
27200000 0.926344 -0.421902
29000000 0.80655 -0.606754
30800000 0.637734 -0.764686
32600000 0.475773 -0.861831
34400000 0.287385 -0.924374
36200000 0.100383 -0.944957
38000000 -0.075668 -0.927411
39800000 -0.237028 -0.886594
41600000 -0.384729 -0.818609
43400000 -0.516458 -0.730976
45200000 -0.626196 -0.621684
47000000 -0.713345 -0.499483
48800000 -0.774754 -0.367214
50600000 -0.808028 -0.23264
52400000 -0.814785 -0.111021
54200000 -0.826188 0.000167
56000000 -0.823256 0.124642
57800000 -0.799755 0.253307
59600000 -0.755986 0.376568
61400000 -0.696319 0.492141
63200000 -0.614053 0.601107
65000000 -0.513945 0.69654
66800000 -0.400883 0.775576
68600000 -0.27477 0.835308
70400000 -0.139039 0.876323
72200000 0.003254 0.895586
74000000 0.150903 0.891947
75800000 0.298194 0.864381
77600000 0.442303 0.808744
79400000 0.578334 0.727254
81200000 0.69878 0.622143
83000000 0.797518 0.495454
84800000 0.871406 0.35171
86600000 0.920766 0.196553
88400000 0.939784 0.032441
90200000 0.927466 -0.13087
92000000 0.884335 -0.287024
93800000 0.812824 -0.434898
95600000 0.716692 -0.56641
97400000 0.592305 -0.680303
99200000 0.433834 -0.776645
101000000 0.194702 -0.824829
102800000 -0.002986 -0.514344
104600000 0.251939 -0.573596
106400000 0.164214 -0.722509
108200000 0.028054 -0.784667
110000000 -0.118214 -0.788633
111800000 -0.250557 -0.755123
113600000 -0.362197 -0.696967
115400000 -0.450504 -0.630062
117200000 -0.529513 -0.56358
119000000 -0.610355 -0.487656
120800000 -0.681992 -0.392817
122600000 -0.732968 -0.283035
124400000 -0.7638 -0.168597
126200000 -0.774605 -0.050005
128000000 -0.768109 0.065049
129800000 -0.740837 0.176921
131600000 -0.695999 0.279143
133400000 -0.636445 0.369731
135200000 -0.556237 0.438957
137000000 -0.482703 0.501508
138800000 -0.406278 0.55251
140600000 -0.323589 0.594219
142400000 -0.235357 0.62055
144200000 -0.146928 0.635025
146000000 -0.055606 0.620609
147800000 -0.002892 0.597315
149600000 0.051055 0.594295
151400000 0.101485 0.581385
153200000 0.143797 0.588041
155000000 0.212004 0.605615
156800000 0.304764 0.611298
158600000 0.414882 0.592268
160400000 0.529726 0.537897
162200000 0.629602 0.451605
164000000 0.707315 0.343839
165800000 0.760348 0.221247
167600000 0.785177 0.093607
169400000 0.785383 -0.030487
171200000 0.770172 -0.147841
173000000 0.740846 -0.261265
174800000 0.694659 -0.371233
176600000 0.630906 -0.475067
178400000 0.549324 -0.566665
180200000 0.455557 -0.642957
182000000 0.351722 -0.704371
183800000 0.237187 -0.749266
185600000 0.117324 -0.771272
187400000 -0.002252 -0.772968
189200000 -0.116871 -0.756753
191000000 -0.225096 -0.724886
192800000 -0.327478 -0.676559
194600000 -0.418155 -0.61396
196400000 -0.496221 -0.541256
198200000 -0.561965 -0.459591
200000000 -0.613042 -0.373671
