# HZ S RI R 50
20000000 0.896036 0.472799
21800000 0.983955 0.25521
23600000 1.021716 0.024492
25400000 1.001732 -0.206691
27200000 0.927101 -0.419449
29000000 0.805926 -0.607412
30800000 0.651104 -0.75634
32600000 0.476079 -0.860687
34400000 0.28751 -0.926391
36200000 0.099074 -0.944987
38000000 -0.075766 -0.926128
39800000 -0.236886 -0.885848
41600000 -0.383574 -0.817841
43400000 -0.515452 -0.73071
45200000 -0.626038 -0.622778
47000000 -0.712425 -0.499698
48800000 -0.774408 -0.368485
50600000 -0.809198 -0.234093
52400000 -0.815249 -0.108428
54200000 -0.823887 0.00327
56000000 -0.820345 0.125879
57800000 -0.797914 0.25295
59600000 -0.755661 0.373932
61400000 -0.69491 0.49077
63200000 -0.615088 0.599889
65000000 -0.516563 0.695764
66800000 -0.402821 0.774834
68600000 -0.276059 0.836711
70400000 -0.140416 0.877176
72200000 0.002478 0.89846
74000000 0.152009 0.893757
75800000 0.299327 0.863861
77600000 0.443598 0.808383
79400000 0.580268 0.728431
81200000 0.698463 0.622611
83000000 0.79784 0.494387
84800000 0.872473 0.351124
86600000 0.921631 0.196305
88400000 0.939709 0.032053
90200000 0.926286 -0.132825
92000000 0.883222 -0.28871
93800000 0.813044 -0.436567
95600000 0.715814 -0.567443
97400000 0.591161 -0.683321
99200000 0.431364 -0.777333
101000000 0.189777 -0.822335
102800000 0.019768 -0.523026
104600000 0.229698 -0.574061
106400000 0.160706 -0.708307
108200000 0.031111 -0.775425
110000000 -0.113556 -0.786649
111800000 -0.246201 -0.753142
113600000 -0.357476 -0.698967
115400000 -0.448827 -0.634562
117200000 -0.529825 -0.566971
119000000 -0.610157 -0.488194
120800000 -0.679227 -0.39173
122600000 -0.731015 -0.284738
124400000 -0.761947 -0.171369
126200000 -0.774516 -0.057008
128000000 -0.769257 0.058968
129800000 -0.746319 0.171063
131600000 -0.705814 0.277231
133400000 -0.646979 0.370593
135200000 -0.56898 0.445123
137000000 -0.493711 0.514086
138800000 -0.409581 0.572125
140600000 -0.316974 0.614159
142400000 -0.22134 0.638678
144200000 -0.121731 0.645095
146000000 -0.023588 0.619015
147800000 0.026307 0.57469
149600000 0.059741 0.559748
151400000 0.092803 0.552235
153200000 0.126057 0.566014
155000000 0.186518 0.598422
156800000 0.287376 0.612586
158600000 0.400502 0.597027
160400000 0.517976 0.544233
162200000 0.618835 0.461464
164000000 0.702541 0.356779
165800000 0.759465 0.236715
167600000 0.792041 0.108104
169400000 0.798263 -0.021158
171200000 0.78577 -0.147698
173000000 0.751179 -0.268611
174800000 0.697858 -0.38001
176600000 0.629497 -0.481234
178400000 0.546741 -0.569301
180200000 0.453088 -0.644022
182000000 0.349222 -0.704005
183800000 0.235021 -0.748519
185600000 0.116376 -0.770108
187400000 -0.002459 -0.773158
189200000 -0.11682 -0.756135
191000000 -0.225725 -0.724445
192800000 -0.328107 -0.676377
194600000 -0.419957 -0.613356
196400000 -0.498168 -0.540041
198200000 -0.562554 -0.453798
200000000 -0.610509 -0.366767
