# HZ S RI R 50
20000000 0.897816 0.473138
21800000 0.985137 0.255434
23600000 1.022048 0.024426
25400000 1.000421 -0.20568
27200000 0.92653 -0.421638
29000000 0.805884 -0.607348
30800000 0.651772 -0.756036
32600000 0.475471 -0.862484
34400000 0.28764 -0.925916
36200000 0.099425 -0.945487
38000000 -0.076092 -0.927763
39800000 -0.236666 -0.886607
41600000 -0.384847 -0.819092
43400000 -0.516507 -0.730522
45200000 -0.625836 -0.621969
47000000 -0.714039 -0.500075
48800000 -0.775451 -0.368252
50600000 -0.808524 -0.232978
52400000 -0.815257 -0.109559
54200000 -0.823758 0.00398
56000000 -0.820417 0.125728
57800000 -0.797272 0.250796
59600000 -0.755737 0.373628
61400000 -0.69662 0.491554
63200000 -0.616154 0.599505
65000000 -0.516732 0.695742
66800000 -0.402699 0.774596
68600000 -0.277582 0.836168
70400000 -0.139978 0.87857
72200000 0.002872 0.896523
74000000 0.150669 0.893225
75800000 0.269472 0.879164
77600000 0.444694 0.809624
79400000 0.579085 0.728694
81200000 0.699479 0.621315
83000000 0.798978 0.49533
84800000 0.875068 0.351987
86600000 0.922468 0.194731
88400000 0.939185 0.031558
90200000 0.928062 -0.131576
92000000 0.884032 -0.290193
93800000 0.812315 -0.436242
95600000 0.715786 -0.568735
97400000 0.590964 -0.683152
99200000 0.430447 -0.778043
101000000 0.183706 -0.82059
102800000 0.035668 -0.491017
104600000 0.251756 -0.600594
106400000 0.152815 -0.732661
108200000 0.012543 -0.782625
110000000 -0.130168 -0.780913
111800000 -0.25675 -0.741056
113600000 -0.35783 -0.682531
115400000 -0.437667 -0.625027
117200000 -0.522515 -0.568547
119000000 -0.608787 -0.488107
120800000 -0.678176 -0.392444
122600000 -0.728849 -0.282413
124400000 -0.758375 -0.169188
126200000 -0.767446 -0.054581
128000000 -0.760855 0.055966
129800000 -0.739786 0.161485
131600000 -0.702891 0.264717
133400000 -0.651933 0.359728
135200000 -0.57857 0.436736
137000000 -0.50483 0.510288
138800000 -0.422183 0.57347
140600000 -0.326462 0.620312
142400000 -0.228139 0.645519
144200000 -0.128184 0.652388
146000000 -0.032632 0.633803
147800000 0.029482 0.596587
149600000 0.077235 0.57455
151400000 0.114524 0.555766
153200000 0.144162 0.557062
155000000 0.194245 0.58417
156800000 0.287747 0.602349
158600000 0.397626 0.589891
160400000 0.513045 0.541608
162200000 0.617308 0.461729
164000000 0.702513 0.356078
165800000 0.761414 0.233702
167600000 0.792245 0.104828
169400000 0.797293 -0.025431
171200000 0.782645 -0.149678
173000000 0.747719 -0.270033
174800000 0.694979 -0.380293
176600000 0.629482 -0.480695
178400000 0.547394 -0.570481
180200000 0.45237 -0.645926
182000000 0.34822 -0.707207
183800000 0.234136 -0.751633
185600000 0.111957 -0.773212
187400000 -0.00661 -0.774007
189200000 -0.122716 -0.757219
191000000 -0.232508 -0.722944
192800000 -0.33514 -0.674424
194600000 -0.425547 -0.609552
196400000 -0.504432 -0.534087
198200000 -0.569643 -0.447318
200000000 -0.615726 -0.354227
