# HZ S RI R 50
20000000 0.895245 0.472544
21800000 0.984508 0.254758
23600000 1.02043 0.025324
25400000 1.000686 -0.205924
27200000 0.927741 -0.420489
29000000 0.807477 -0.606592
30800000 0.652018 -0.756419
32600000 0.475637 -0.862862
34400000 0.286385 -0.926436
36200000 0.100127 -0.945398
38000000 -0.075586 -0.92776
39800000 -0.237008 -0.887058
41600000 -0.384865 -0.819193
43400000 -0.516009 -0.729877
45200000 -0.625162 -0.621339
47000000 -0.712908 -0.498212
48800000 -0.774813 -0.368043
50600000 -0.808593 -0.233206
52400000 -0.816842 -0.109492
54200000 -0.825766 0.003207
56000000 -0.821987 0.125324
57800000 -0.798438 0.253847
59600000 -0.755113 0.374833
61400000 -0.695307 0.491611
63200000 -0.613939 0.60078
65000000 -0.514076 0.696185
66800000 -0.402079 0.774668
68600000 -0.276476 0.834586
70400000 -0.139691 0.875968
72200000 0.002903 0.895823
74000000 0.150858 0.893163
75800000 0.29937 0.863808
77600000 0.442558 0.809074
79400000 0.578054 0.72784
81200000 0.697846 0.621352
83000000 0.797642 0.49664
84800000 0.872781 0.350797
86600000 0.9202 0.195908
88400000 0.939199 0.033657
90200000 0.926854 -0.130613
92000000 0.883621 -0.287551
93800000 0.812682 -0.43462
95600000 0.71718 -0.566446
97400000 0.591115 -0.681896
99200000 0.43086 -0.778497
101000000 0.181983 -0.821292
102800000 0.025262 -0.481983
104600000 0.263948 -0.588987
106400000 0.165094 -0.732994
108200000 0.026188 -0.789779
110000000 -0.122205 -0.793099
111800000 -0.256176 -0.756586
113600000 -0.367958 -0.698509
115400000 -0.455032 -0.62978
117200000 -0.533761 -0.56326
119000000 -0.615458 -0.484919
120800000 -0.68294 -0.387409
122600000 -0.732618 -0.27799
124400000 -0.761175 -0.162022
126200000 -0.767701 -0.047912
128000000 -0.761563 0.061795
129800000 -0.736982 0.171707
131600000 -0.697707 0.274302
133400000 -0.642077 0.368105
135200000 -0.563774 0.441355
137000000 -0.487546 0.507823
138800000 -0.406994 0.560491
140600000 -0.320462 0.602047
142400000 -0.227346 0.626256
144200000 -0.135353 0.632036
146000000 -0.050976 0.614522
147800000 -0.002246 0.591092
149600000 0.04956 0.588996
151400000 0.099895 0.581029
153200000 0.144528 0.583618
155000000 0.205468 0.604607
156800000 0.304416 0.615248
158600000 0.418034 0.593599
160400000 0.530744 0.534993
162200000 0.630005 0.450496
164000000 0.707493 0.342562
165800000 0.761219 0.219735
167600000 0.786497 0.091127
169400000 0.786051 -0.033532
171200000 0.769712 -0.150566
173000000 0.739095 -0.264111
174800000 0.692405 -0.374237
176600000 0.6281 -0.475355
178400000 0.54713 -0.566825
180200000 0.452979 -0.642379
182000000 0.351488 -0.702855
183800000 0.236278 -0.749962
185600000 0.115355 -0.77257
187400000 -0.004391 -0.774772
189200000 -0.119509 -0.75753
191000000 -0.229353 -0.725213
192800000 -0.332554 -0.676384
194600000 -0.425347 -0.611401
196400000 -0.504999 -0.535464
198200000 -0.571252 -0.449106
200000000 -0.617355 -0.356127
