# HZ S RI R 50
20000000 0.895936 0.473123
21800000 0.984295 0.254189
23600000 1.021173 0.025117
25400000 1.001554 -0.207116
27200000 0.925661 -0.421535
29000000 0.806397 -0.608083
30800000 0.652466 -0.755364
32600000 0.476055 -0.861704
34400000 0.288007 -0.925319
36200000 0.098881 -0.946065
38000000 -0.077152 -0.92788
39800000 -0.237225 -0.886124
41600000 -0.383643 -0.818407
43400000 -0.517135 -0.730444
45200000 -0.626676 -0.62129
47000000 -0.712043 -0.498282
48800000 -0.773292 -0.366844
50600000 -0.807254 -0.233569
52400000 -0.813001 -0.10989
54200000 -0.822837 0.002427
56000000 -0.819967 0.123458
57800000 -0.798415 0.250763
59600000 -0.757447 0.373131
61400000 -0.69728 0.491851
63200000 -0.614545 0.600522
65000000 -0.515427 0.696441
66800000 -0.401615 0.774119
68600000 -0.27651 0.835817
70400000 -0.14011 0.877297
72200000 0.003376 0.897719
74000000 0.152694 0.894052
75800000 0.299258 0.864468
77600000 0.444059 0.809966
79400000 0.579097 0.728717
81200000 0.699232 0.622721
83000000 0.797987 0.496165
84800000 0.874974 0.351535
86600000 0.921934 0.196445
88400000 0.939224 0.032527
90200000 0.926899 -0.130651
92000000 0.883312 -0.287355
93800000 0.813836 -0.434292
95600000 0.716724 -0.566223
97400000 0.592166 -0.682005
99200000 0.430177 -0.77893
101000000 0.180957 -0.819636
102800000 0.03482 -0.446894
104600000 0.284764 -0.616657
106400000 0.157819 -0.755108
108200000 0.009438 -0.798244
110000000 -0.134182 -0.792873
111800000 -0.264291 -0.753539
113600000 -0.373181 -0.694088
115400000 -0.460677 -0.624385
117200000 -0.538229 -0.556917
119000000 -0.618555 -0.477412
120800000 -0.685672 -0.379301
122600000 -0.732382 -0.269059
124400000 -0.761088 -0.153496
126200000 -0.767034 -0.034456
128000000 -0.753242 0.077837
129800000 -0.721769 0.18817
131600000 -0.670478 0.288763
133400000 -0.602168 0.366503
135200000 -0.521567 0.419253
137000000 -0.457503 0.462508
138800000 -0.399001 0.503267
140600000 -0.339205 0.540919
142400000 -0.278012 0.572773
144200000 -0.212279 0.609283
146000000 -0.136455 0.632582
147800000 -0.059829 0.653605
149600000 0.030048 0.662249
151400000 0.110726 0.656269
153200000 0.194035 0.642424
155000000 0.273231 0.625455
156800000 0.35755 0.60103
158600000 0.447718 0.568446
160400000 0.548107 0.51158
162200000 0.638895 0.428845
164000000 0.710475 0.32417
165800000 0.764933 0.20095
167600000 0.78585 0.071176
169400000 0.780156 -0.053514
171200000 0.75533 -0.168055
173000000 0.721461 -0.274843
174800000 0.673635 -0.378724
176600000 0.60841 -0.474432
178400000 0.530575 -0.557886
180200000 0.442469 -0.630118
182000000 0.34451 -0.690485
183800000 0.232921 -0.735018
185600000 0.11766 -0.756618
187400000 0.002808 -0.761011
189200000 -0.110033 -0.747807
191000000 -0.218354 -0.71912
192800000 -0.319354 -0.673045
194600000 -0.408353 -0.613603
196400000 -0.487707 -0.545464
198200000 -0.557989 -0.467113
200000000 -0.614177 -0.379016
