# HZ S RI R 50
20000000 0.89804 0.473181
21800000 0.984175 0.253963
23600000 1.021722 0.02555
25400000 1.00168 -0.205223
27200000 0.927038 -0.421596
29000000 0.804769 -0.60742
30800000 0.652218 -0.756025
32600000 0.474395 -0.862394
34400000 0.287879 -0.926398
36200000 0.099439 -0.946464
38000000 -0.077489 -0.928079
39800000 -0.238435 -0.884733
41600000 -0.38426 -0.81908
43400000 -0.515507 -0.73089
45200000 -0.625376 -0.621941
47000000 -0.7141 -0.49983
48800000 -0.774382 -0.366425
50600000 -0.809333 -0.231157
52400000 -0.812781 -0.106102
54200000 -0.820469 0.000538
56000000 -0.820281 0.121812
57800000 -0.800218 0.247668
59600000 -0.758177 0.373096
61400000 -0.697116 0.491174
63200000 -0.61625 0.600617
65000000 -0.515675 0.696838
66800000 -0.402128 0.775153
68600000 -0.276389 0.836803
70400000 -0.140339 0.878494
72200000 0.00388 0.897644
74000000 0.151712 0.894404
75800000 0.28578 0.871177
77600000 0.429883 0.81894
79400000 0.567109 0.739834
81200000 0.688744 0.636035
83000000 0.79025 0.510679
84800000 0.8678 0.367603
86600000 0.919377 0.212657
88400000 0.939405 0.033687
90200000 0.926706 -0.130494
92000000 0.884559 -0.288016
93800000 0.813751 -0.435623
95600000 0.716479 -0.567167
97400000 0.591244 -0.682211
99200000 0.430447 -0.778367
101000000 0.181099 -0.818968
102800000 0.04052 -0.461986
104600000 0.270841 -0.610945
106400000 0.15459 -0.745154
108200000 0.012661 -0.790858
110000000 -0.130287 -0.791108
111800000 -0.260236 -0.755284
113600000 -0.372207 -0.693626
115400000 -0.461866 -0.622125
117200000 -0.534588 -0.551986
119000000 -0.612452 -0.475295
120800000 -0.67965 -0.375807
122600000 -0.723125 -0.270125
124400000 -0.750149 -0.159165
126200000 -0.756375 -0.048376
128000000 -0.748941 0.059203
129800000 -0.726362 0.162446
131600000 -0.691566 0.262655
133400000 -0.638789 0.356217
135200000 -0.561791 0.429348
137000000 -0.489728 0.492985
138800000 -0.413957 0.544301
140600000 -0.330893 0.585741
142400000 -0.248625 0.611333
144200000 -0.168424 0.626419
146000000 -0.089199 0.627181
147800000 -0.027697 0.626133
149600000 0.041905 0.62998
151400000 0.108151 0.62288
153200000 0.176298 0.621432
155000000 0.254871 0.616605
156800000 0.345322 0.599633
158600000 0.439613 0.566735
160400000 0.539754 0.511641
162200000 0.630435 0.428064
164000000 0.703454 0.324925
165800000 0.755482 0.207
167600000 0.780061 0.080182
169400000 0.776772 -0.045018
171200000 0.75581 -0.160379
173000000 0.721716 -0.2686
174800000 0.674322 -0.372971
176600000 0.60972 -0.467417
178400000 0.534353 -0.551556
180200000 0.447807 -0.62546
182000000 0.34992 -0.688141
183800000 0.239614 -0.733846
185600000 0.12318 -0.757962
187400000 0.009523 -0.763867
189200000 -0.104123 -0.751298
191000000 -0.212916 -0.724349
192800000 -0.316003 -0.6809
194600000 -0.408817 -0.623049
196400000 -0.491608 -0.552701
198200000 -0.564233 -0.471955
200000000 -0.62148 -0.382315
