# HZ S RI R 50
20000000 0.894984 0.472229
21800000 0.984726 0.254762
23600000 1.022636 0.025967
25400000 1.001025 -0.205497
27200000 0.924727 -0.420999
29000000 0.80516 -0.608378
30800000 0.651423 -0.755402
32600000 0.475618 -0.861659
34400000 0.286956 -0.927025
36200000 0.098963 -0.945647
38000000 -0.077497 -0.925981
39800000 -0.237232 -0.884991
41600000 -0.384258 -0.819889
43400000 -0.515918 -0.730288
45200000 -0.625588 -0.621129
47000000 -0.713092 -0.499292
48800000 -0.773156 -0.366752
50600000 -0.806298 -0.232351
52400000 -0.812009 -0.110552
54200000 -0.822772 -0.000544
56000000 -0.820952 0.123542
57800000 -0.800629 0.250109
59600000 -0.757795 0.373741
61400000 -0.698067 0.493
63200000 -0.615389 0.601358
65000000 -0.515384 0.696767
66800000 -0.40178 0.775317
68600000 -0.276081 0.836052
70400000 -0.13913 0.877567
72200000 0.004081 0.896314
74000000 0.151073 0.89323
75800000 0.29912 0.863874
77600000 0.444376 0.808414
79400000 0.579177 0.727606
81200000 0.699029 0.622211
83000000 0.798288 0.496098
84800000 0.874808 0.35036
86600000 0.921467 0.195299
88400000 0.940165 0.032331
90200000 0.926883 -0.13104
92000000 0.885124 -0.288821
93800000 0.813035 -0.435908
95600000 0.715437 -0.567319
97400000 0.59028 -0.684321
99200000 0.430248 -0.778268
101000000 0.181085 -0.819445
102800000 0.043659 -0.478262
104600000 0.256748 -0.608073
106400000 0.148966 -0.736753
108200000 0.015477 -0.783164
110000000 -0.124083 -0.787022
111800000 -0.258578 -0.753336
113600000 -0.369086 -0.694839
115400000 -0.458717 -0.624503
117200000 -0.534315 -0.555757
119000000 -0.613429 -0.477946
120800000 -0.680344 -0.378848
122600000 -0.72425 -0.272506
124400000 -0.751094 -0.16043
126200000 -0.759117 -0.05099
128000000 -0.754372 0.057806
129800000 -0.733313 0.166677
131600000 -0.692724 0.269348
133400000 -0.63481 0.359096
135200000 -0.559193 0.427535
137000000 -0.49 0.4905
138800000 -0.419933 0.546323
140600000 -0.336822 0.593852
142400000 -0.248459 0.6218
144200000 -0.160096 0.639272
146000000 -0.073076 0.636548
147800000 -0.007178 0.626635
149600000 0.064065 0.61785
151400000 0.122774 0.600338
153200000 0.176166 0.592288
155000000 0.239841 0.595351
156800000 0.324931 0.588361
158600000 0.418685 0.565819
160400000 0.523305 0.515954
162200000 0.618282 0.437242
164000000 0.694088 0.336294
165800000 0.749571 0.220528
167600000 0.777498 0.094509
169400000 0.782072 -0.029012
171200000 0.768542 -0.148061
173000000 0.738089 -0.264205
174800000 0.688055 -0.373896
176600000 0.621384 -0.472886
178400000 0.543962 -0.559659
180200000 0.454657 -0.635162
182000000 0.352376 -0.698964
183800000 0.239703 -0.745266
185600000 0.121627 -0.768966
187400000 0.001461 -0.773292
189200000 -0.114576 -0.759128
191000000 -0.225185 -0.72856
192800000 -0.33044 -0.680753
194600000 -0.422213 -0.616998
196400000 -0.502485 -0.543048
198200000 -0.571463 -0.458198
200000000 -0.621364 -0.367234
