# HZ S RI R 50
20000000 0.89674 0.472247
21800000 0.983847 0.255018
23600000 1.021933 0.025575
25400000 1.000859 -0.20632
27200000 0.927069 -0.419968
29000000 0.806755 -0.608696
30800000 0.651371 -0.755498
32600000 0.47601 -0.861972
34400000 0.28683 -0.92533
36200000 0.099333 -0.944417
38000000 -0.075194 -0.926586
39800000 -0.236763 -0.886606
41600000 -0.372257 -0.82813
43400000 -0.515849 -0.730331
45200000 -0.626566 -0.621197
47000000 -0.71301 -0.49881
48800000 -0.773405 -0.366825
50600000 -0.805737 -0.233675
52400000 -0.814793 -0.113113
54200000 -0.825917 0.000684
56000000 -0.824819 0.124804
57800000 -0.79948 0.252751
59600000 -0.756989 0.374923
61400000 -0.696401 0.492475
63200000 -0.615092 0.601843
65000000 -0.515057 0.696645
66800000 -0.400318 0.77566
68600000 -0.27365 0.836868
70400000 -0.137585 0.877184
72200000 0.004743 0.894996
74000000 0.150931 0.891639
75800000 0.29874 0.862964
77600000 0.44148 0.808672
79400000 0.578222 0.728413
81200000 0.69838 0.621461
83000000 0.797465 0.49517
84800000 0.873268 0.351005
86600000 0.919986 0.195337
88400000 0.937164 0.031815
90200000 0.926717 -0.130929
92000000 0.883798 -0.28833
93800000 0.81277 -0.43536
95600000 0.715914 -0.566559
97400000 0.591552 -0.683267
99200000 0.428744 -0.778609
101000000 0.178664 -0.818131
102800000 0.034268 -0.473997
104600000 0.26904 -0.596467
106400000 0.161091 -0.738219
108200000 0.020015 -0.790777
110000000 -0.12525 -0.789852
111800000 -0.255828 -0.752484
113600000 -0.363317 -0.695095
115400000 -0.450669 -0.629622
117200000 -0.532525 -0.567567
119000000 -0.617441 -0.487266
120800000 -0.685356 -0.389234
122600000 -0.735009 -0.279581
124400000 -0.76541 -0.164945
126200000 -0.77418 -0.048811
128000000 -0.766748 0.068226
129800000 -0.740953 0.178637
131600000 -0.695727 0.282985
133400000 -0.637877 0.372774
135200000 -0.557686 0.446197
137000000 -0.479676 0.50899
138800000 -0.399015 0.559271
140600000 -0.312832 0.598116
142400000 -0.225073 0.620533
144200000 -0.134721 0.632039
146000000 -0.040921 0.611723
147800000 0.002944 0.576454
149600000 0.042534 0.574462
151400000 0.085915 0.572892
153200000 0.129118 0.589483
155000000 0.203662 0.615396
156800000 0.305488 0.619615
158600000 0.418376 0.596218
160400000 0.534769 0.53717
162200000 0.631546 0.448965
164000000 0.707405 0.340948
165800000 0.759799 0.219356
167600000 0.784348 0.092368
169400000 0.785587 -0.033074
171200000 0.769965 -0.151227
173000000 0.737969 -0.263931
174800000 0.690247 -0.373389
176600000 0.62502 -0.47425
178400000 0.546968 -0.563118
180200000 0.455768 -0.640134
182000000 0.353809 -0.70367
183800000 0.237409 -0.749712
185600000 0.11707 -0.774088
187400000 -0.002353 -0.776043
189200000 -0.119675 -0.758999
191000000 -0.229791 -0.727421
192800000 -0.333958 -0.678304
194600000 -0.426392 -0.615296
196400000 -0.506077 -0.539268
198200000 -0.572415 -0.452058
200000000 -0.620875 -0.360817
