# HZ S RI R 50
20000000 0.895664 0.473892
21800000 0.983968 0.255393
23600000 1.022212 0.024549
25400000 0.999916 -0.207348
27200000 0.926115 -0.422152
29000000 0.807088 -0.608469
30800000 0.651774 -0.756413
32600000 0.473876 -0.861843
34400000 0.286142 -0.924648
36200000 0.099859 -0.944243
38000000 -0.075655 -0.927045
39800000 -0.235871 -0.886487
41600000 -0.383629 -0.817258
43400000 -0.516582 -0.729873
45200000 -0.626045 -0.620316
47000000 -0.713308 -0.498417
48800000 -0.772079 -0.368045
50600000 -0.805807 -0.233038
52400000 -0.812743 -0.112855
54200000 -0.826046 -0.001914
56000000 -0.824597 0.125194
57800000 -0.801637 0.252867
59600000 -0.757166 0.375465
61400000 -0.697608 0.493223
63200000 -0.614497 0.602912
65000000 -0.514364 0.697663
66800000 -0.400778 0.775539
68600000 -0.27502 0.836815
70400000 -0.138331 0.87684
72200000 0.00384 0.89589
74000000 0.150681 0.891786
75800000 0.299876 0.864101
77600000 0.443919 0.808599
79400000 0.580035 0.727237
81200000 0.698619 0.622071
83000000 0.798405 0.495875
84800000 0.873887 0.351542
86600000 0.921685 0.195253
88400000 0.939697 0.031508
90200000 0.927797 -0.130577
92000000 0.882707 -0.289604
93800000 0.813081 -0.435214
95600000 0.715109 -0.56749
97400000 0.590472 -0.68276
99200000 0.428583 -0.777467
101000000 0.177368 -0.816809
102800000 0.039222 -0.476303
104600000 0.263905 -0.601116
106400000 0.157993 -0.737647
108200000 0.018171 -0.789784
110000000 -0.127575 -0.788424
111800000 -0.256096 -0.751075
113600000 -0.36281 -0.692406
115400000 -0.450014 -0.627616
117200000 -0.530021 -0.566322
119000000 -0.615698 -0.48615
120800000 -0.683821 -0.388298
122600000 -0.733099 -0.277918
124400000 -0.764035 -0.163298
126200000 -0.773365 -0.047065
128000000 -0.763308 0.070462
129800000 -0.734895 0.178676
131600000 -0.689022 0.281178
133400000 -0.630829 0.36726
135200000 -0.554629 0.436045
137000000 -0.483527 0.498069
138800000 -0.408401 0.552666
140600000 -0.322263 0.597176
142400000 -0.231262 0.623442
144200000 -0.139419 0.633421
146000000 -0.051324 0.615656
147800000 -0.00048 0.591205
149600000 0.049836 0.58722
151400000 0.098188 0.578065
153200000 0.139839 0.584963
155000000 0.206517 0.608278
156800000 0.305404 0.614206
158600000 0.41644 0.591455
160400000 0.529286 0.535046
162200000 0.625837 0.450469
164000000 0.704433 0.343886
165800000 0.759715 0.223072
167600000 0.785664 0.095489
169400000 0.788688 -0.029962
171200000 0.773558 -0.149931
173000000 0.741856 -0.265925
174800000 0.693004 -0.375667
176600000 0.628117 -0.475667
178400000 0.548074 -0.565789
180200000 0.455459 -0.643018
182000000 0.351265 -0.705283
183800000 0.236524 -0.74985
185600000 0.114719 -0.772875
187400000 -0.005042 -0.773743
189200000 -0.119021 -0.756993
191000000 -0.228694 -0.724093
192800000 -0.330892 -0.67641
194600000 -0.422039 -0.613563
196400000 -0.502035 -0.539288
198200000 -0.569311 -0.454777
200000000 -0.617028 -0.3632
