# HZ S RI R 50
20000000 0.896986 0.472345
21800000 0.980566 0.273021
23600000 1.021116 0.008322
25400000 1.005552 -0.188378
27200000 0.927092 -0.421439
29000000 0.806145 -0.607475
30800000 0.652574 -0.757508
32600000 0.475175 -0.862004
34400000 0.244658 -0.928532
36200000 0.100646 -0.944647
38000000 -0.076691 -0.926525
39800000 -0.236592 -0.886149
41600000 -0.384492 -0.818714
43400000 -0.51503 -0.72979
45200000 -0.625253 -0.621821
47000000 -0.713086 -0.498857
48800000 -0.773782 -0.367645
50600000 -0.805851 -0.233534
52400000 -0.813122 -0.112389
54200000 -0.825017 -0.00025
56000000 -0.823525 0.124579
57800000 -0.799756 0.251847
59600000 -0.756838 0.376441
61400000 -0.697099 0.492945
63200000 -0.615187 0.602535
65000000 -0.514325 0.696917
66800000 -0.371241 0.782655
68600000 -0.273494 0.836631
70400000 -0.138131 0.877051
72200000 0.004227 0.89539
74000000 0.151042 0.891887
75800000 0.299712 0.862347
77600000 0.443181 0.808313
79400000 0.578814 0.72779
81200000 0.697566 0.621638
83000000 0.798746 0.494232
84800000 0.873096 0.35007
86600000 0.919621 0.195227
88400000 0.939736 0.031284
90200000 0.927316 -0.131379
92000000 0.883039 -0.289858
93800000 0.81223 -0.434912
95600000 0.714339 -0.567175
97400000 0.590008 -0.681944
99200000 0.4285 -0.778161
101000000 0.179954 -0.816105
102800000 0.03316 -0.494304
104600000 0.251412 -0.585558
106400000 0.16212 -0.724741
108200000 0.027511 -0.783413
110000000 -0.116846 -0.789533
111800000 -0.250149 -0.756065
113600000 -0.363106 -0.699679
115400000 -0.455442 -0.628582
117200000 -0.532465 -0.558524
119000000 -0.610216 -0.482644
120800000 -0.677284 -0.384832
122600000 -0.724822 -0.28048
124400000 -0.753945 -0.169226
126200000 -0.764898 -0.059097
128000000 -0.762851 0.051098
129800000 -0.746641 0.161916
131600000 -0.706439 0.269141
133400000 -0.650202 0.366176
135200000 -0.572078 0.440945
137000000 -0.496068 0.508166
138800000 -0.41781 0.563997
140600000 -0.328885 0.609968
142400000 -0.235851 0.63726
144200000 -0.139895 0.6512
146000000 -0.043348 0.633575
147800000 0.012475 0.604901
149600000 0.066535 0.596288
151400000 0.118426 0.58081
153200000 0.160934 0.581015
155000000 0.226963 0.59446
156800000 0.315197 0.591587
158600000 0.413769 0.571771
160400000 0.52282 0.522528
162200000 0.619914 0.440997
164000000 0.69822 0.337393
165800000 0.753455 0.216362
167600000 0.776579 0.08888
169400000 0.774555 -0.033483
171200000 0.760256 -0.147496
173000000 0.730048 -0.25751
174800000 0.684994 -0.36381
176600000 0.624765 -0.465072
178400000 0.549235 -0.555072
180200000 0.459232 -0.634323
182000000 0.357468 -0.69956
183800000 0.242768 -0.746099
185600000 0.122939 -0.771283
187400000 0.003458 -0.775124
189200000 -0.113109 -0.760892
191000000 -0.22438 -0.729512
192800000 -0.32831 -0.683635
194600000 -0.421718 -0.619964
196400000 -0.503701 -0.545684
198200000 -0.571433 -0.461842
200000000 -0.624424 -0.36915
