# HZ S RI R 50
20000000 0.89568 0.472387
21800000 0.984492 0.254944
23600000 1.020625 0.025757
25400000 1.000387 -0.206579
27200000 0.926327 -0.42172
29000000 0.806246 -0.607494
30800000 0.650948 -0.754941
32600000 0.475092 -0.861823
34400000 0.286514 -0.924641
36200000 0.099193 -0.944886
38000000 -0.075661 -0.927594
39800000 -0.237088 -0.886093
41600000 -0.383052 -0.8188
43400000 -0.514863 -0.729575
45200000 -0.626387 -0.621167
47000000 -0.711863 -0.498568
48800000 -0.773238 -0.36702
50600000 -0.805893 -0.232582
52400000 -0.812172 -0.111757
54200000 -0.825237 -0.002121
56000000 -0.824841 0.123932
57800000 -0.801094 0.254446
59600000 -0.756812 0.376655
61400000 -0.697278 0.493596
63200000 -0.614156 0.60288
65000000 -0.514473 0.698279
66800000 -0.400185 0.776607
68600000 -0.27415 0.835603
70400000 -0.137521 0.87696
72200000 0.004686 0.895266
74000000 0.151687 0.891443
75800000 0.300239 0.864179
77600000 0.445083 0.808713
79400000 0.578634 0.727774
81200000 0.699736 0.621934
83000000 0.798552 0.494329
84800000 0.87327 0.349464
86600000 0.920888 0.193445
88400000 0.938878 0.030797
90200000 0.926074 -0.134153
92000000 0.882914 -0.289664
93800000 0.811416 -0.435809
95600000 0.712677 -0.56859
97400000 0.589386 -0.68273
99200000 0.427872 -0.777622
101000000 0.178495 -0.815814
102800000 0.029885 -0.502708
104600000 0.24811 -0.578066
106400000 0.164047 -0.721898
108200000 0.027584 -0.781936
110000000 -0.118679 -0.787855
111800000 -0.249232 -0.753862
113600000 -0.360996 -0.698228
115400000 -0.450267 -0.631048
117200000 -0.528334 -0.562537
119000000 -0.609718 -0.485407
120800000 -0.679261 -0.390472
122600000 -0.729048 -0.281799
124400000 -0.758726 -0.170086
126200000 -0.768856 -0.054891
128000000 -0.761394 0.058215
129800000 -0.737642 0.166879
131600000 -0.69833 0.266263
133400000 -0.644992 0.356346
135200000 -0.572952 0.428676
137000000 -0.506142 0.499111
138800000 -0.43065 0.565601
140600000 -0.343141 0.615022
142400000 -0.23897 0.65192
144200000 -0.137723 0.667308
146000000 -0.031121 0.648911
147800000 0.034228 0.603893
149600000 0.082159 0.586699
151400000 0.122092 0.5655
153200000 0.155842 0.56844
155000000 0.219956 0.587246
156800000 0.307098 0.590074
158600000 0.408201 0.57248
160400000 0.516669 0.523411
162200000 0.615375 0.444675
164000000 0.694511 0.342162
165800000 0.750539 0.223284
167600000 0.776536 0.097767
169400000 0.779677 -0.025617
171200000 0.76787 -0.141435
173000000 0.740441 -0.257854
174800000 0.694822 -0.369528
176600000 0.631589 -0.472952
178400000 0.550678 -0.56528
180200000 0.457126 -0.642714
182000000 0.352547 -0.706077
183800000 0.236819 -0.749941
185600000 0.116572 -0.773207
187400000 -0.003266 -0.774798
189200000 -0.118976 -0.757981
191000000 -0.227326 -0.72609
192800000 -0.330175 -0.678304
194600000 -0.42203 -0.615616
196400000 -0.502001 -0.542462
198200000 -0.568276 -0.460169
200000000 -0.622126 -0.371135
