# HZ S RI R 50
20000000 0.895417 0.472918
21800000 0.984017 0.253921
23600000 1.021884 0.024833
25400000 1.000657 -0.206498
27200000 0.925932 -0.420926
29000000 0.807968 -0.60681
30800000 0.652218 -0.755043
32600000 0.47576 -0.862006
34400000 0.287507 -0.924862
36200000 0.098745 -0.945087
38000000 -0.076666 -0.927739
39800000 -0.236696 -0.885682
41600000 -0.383817 -0.817959
43400000 -0.515498 -0.730259
45200000 -0.626044 -0.620633
47000000 -0.712717 -0.499019
48800000 -0.774078 -0.368287
50600000 -0.806 -0.233064
52400000 -0.811914 -0.109654
54200000 -0.823272 -0.001653
56000000 -0.82369 0.12365
57800000 -0.803032 0.251634
59600000 -0.758354 0.37547
61400000 -0.698114 0.492935
63200000 -0.616004 0.602708
65000000 -0.514776 0.698216
66800000 -0.400762 0.775159
68600000 -0.274658 0.836801
70400000 -0.138185 0.876517
72200000 0.004076 0.896166
74000000 0.151881 0.891204
75800000 0.299276 0.862266
77600000 0.444497 0.808892
79400000 0.578492 0.726613
81200000 0.698635 0.621556
83000000 0.798082 0.494309
84800000 0.873904 0.34973
86600000 0.920996 0.194268
88400000 0.938941 0.031461
90200000 0.924827 -0.131772
92000000 0.88235 -0.289313
93800000 0.811287 -0.4361
95600000 0.713913 -0.566954
97400000 0.589122 -0.682676
99200000 0.428192 -0.778304
101000000 0.177607 -0.815945
102800000 0.039711 -0.483325
104600000 0.258819 -0.597656
106400000 0.157364 -0.734561
108200000 0.016351 -0.787021
110000000 -0.12826 -0.786807
111800000 -0.256209 -0.750188
113600000 -0.364586 -0.691557
115400000 -0.452679 -0.624453
117200000 -0.530904 -0.555658
119000000 -0.609712 -0.480126
120800000 -0.677118 -0.384945
122600000 -0.725286 -0.277455
124400000 -0.754205 -0.164822
126200000 -0.762231 -0.05266
128000000 -0.754794 0.059214
129800000 -0.733698 0.166859
131600000 -0.689191 0.269951
133400000 -0.632105 0.35626
135200000 -0.557981 0.423517
137000000 -0.489282 0.484427
138800000 -0.422625 0.535676
140600000 -0.346445 0.582747
142400000 -0.266982 0.618528
144200000 -0.181876 0.646661
146000000 -0.093549 0.653376
147800000 -0.011507 0.657804
149600000 0.074158 0.650014
151400000 0.149314 0.623234
153200000 0.207149 0.592193
155000000 0.266284 0.581858
156800000 0.336071 0.567967
158600000 0.418823 0.548917
160400000 0.521533 0.503457
162200000 0.613277 0.428381
164000000 0.689232 0.329376
165800000 0.743558 0.214581
167600000 0.769161 0.089722
169400000 0.770023 -0.030826
171200000 0.756398 -0.142685
173000000 0.730476 -0.253552
174800000 0.687448 -0.364713
176600000 0.624718 -0.464077
178400000 0.548831 -0.555494
180200000 0.459403 -0.634602
182000000 0.356912 -0.698947
183800000 0.242679 -0.74664
185600000 0.122283 -0.76978
187400000 0.004361 -0.773158
189200000 -0.110769 -0.759243
191000000 -0.219833 -0.730236
192800000 -0.324839 -0.684757
194600000 -0.418268 -0.624928
196400000 -0.501627 -0.552824
198200000 -0.572983 -0.469268
200000000 -0.62958 -0.376698
