# HZ S RI R 50
20000000 0.897095 0.473438
21800000 0.984405 0.254339
23600000 1.019728 0.02514
25400000 1.000054 -0.206361
27200000 0.927242 -0.42038
29000000 0.807019 -0.606341
30800000 0.65207 -0.755342
32600000 0.476661 -0.861606
34400000 0.288637 -0.926297
36200000 0.099948 -0.94526
38000000 -0.077233 -0.927625
39800000 -0.236133 -0.886165
41600000 -0.383434 -0.819341
43400000 -0.515146 -0.731679
45200000 -0.626042 -0.622536
47000000 -0.71415 -0.500234
48800000 -0.77513 -0.368497
50600000 -0.810325 -0.231087
52400000 -0.815223 -0.104887
54200000 -0.818337 0.004128
56000000 -0.818295 0.121889
57800000 -0.798334 0.245286
59600000 -0.758783 0.370545
61400000 -0.699962 0.490136
63200000 -0.617313 0.599891
65000000 -0.517148 0.697211
66800000 -0.405369 0.775267
68600000 -0.278756 0.837279
70400000 -0.142409 0.878992
72200000 0.002039 0.900307
74000000 0.151428 0.895299
75800000 0.300218 0.865796
77600000 0.444742 0.810946
79400000 0.57938 0.728265
81200000 0.699988 0.623316
83000000 0.798859 0.496149
84800000 0.874614 0.351872
86600000 0.922467 0.196429
88400000 0.940772 0.032351
90200000 0.927748 -0.130327
92000000 0.885648 -0.288412
93800000 0.812424 -0.436462
95600000 0.715197 -0.568308
97400000 0.590114 -0.683557
99200000 0.428869 -0.777568
101000000 0.18066 -0.813987
102800000 0.076964 -0.505751
104600000 0.225135 -0.616124
106400000 0.134298 -0.717111
108200000 0.018186 -0.764351
110000000 -0.114454 -0.777213
111800000 -0.245258 -0.749051
113600000 -0.356719 -0.696716
115400000 -0.449601 -0.631518
117200000 -0.532984 -0.561967
119000000 -0.611039 -0.479932
120800000 -0.673006 -0.382635
122600000 -0.719681 -0.279366
124400000 -0.750124 -0.1684
126200000 -0.761489 -0.060739
128000000 -0.760144 0.050276
129800000 -0.739442 0.160761
131600000 -0.700479 0.264929
133400000 -0.643731 0.356627
135200000 -0.569477 0.428889
137000000 -0.510075 0.489748
138800000 -0.422388 0.560669
140600000 -0.341262 0.600796
142400000 -0.236099 0.629418
144200000 -0.155533 0.633555
146000000 -0.064291 0.621906
147800000 -0.013963 0.609325
149600000 0.05215 0.593814
151400000 0.08184 0.591595
153200000 0.145839 0.604845
155000000 0.20156 0.629369
156800000 0.322236 0.614305
158600000 0.428961 0.586359
160400000 0.537181 0.528579
162200000 0.631514 0.44159
164000000 0.706167 0.335661
165800000 0.758776 0.216367
167600000 0.783786 0.090853
169400000 0.786612 -0.033503
171200000 0.76991 -0.152034
173000000 0.736588 -0.266671
174800000 0.687375 -0.37426
176600000 0.621799 -0.473142
178400000 0.545801 -0.561401
180200000 0.455177 -0.638559
182000000 0.352596 -0.701352
183800000 0.239359 -0.747286
185600000 0.119122 -0.771904
187400000 -0.001448 -0.774039
189200000 -0.117489 -0.757126
191000000 -0.226535 -0.723075
192800000 -0.326527 -0.675776
194600000 -0.414983 -0.614904
196400000 -0.494155 -0.543625
198200000 -0.562822 -0.46327
200000000 -0.615903 -0.375307
