# HZ S RI R 50
20000000 0.896749 0.47187
21800000 0.984985 0.253627
23600000 1.02169 0.024194
25400000 1.000328 -0.206227
27200000 0.926493 -0.420489
29000000 0.805854 -0.606924
30800000 0.652747 -0.755776
32600000 0.475898 -0.862634
34400000 0.288601 -0.924945
36200000 0.100945 -0.945818
38000000 -0.074881 -0.92887
39800000 -0.237765 -0.887234
41600000 -0.386051 -0.820099
43400000 -0.515985 -0.731344
45200000 -0.626602 -0.622342
47000000 -0.713712 -0.49979
48800000 -0.776052 -0.368294
50600000 -0.807414 -0.232747
52400000 -0.814128 -0.10908
54200000 -0.823567 0.000308
56000000 -0.822229 0.124235
57800000 -0.800794 0.250891
59600000 -0.758138 0.375443
61400000 -0.696788 0.492649
63200000 -0.615317 0.60139
65000000 -0.516357 0.697878
66800000 -0.401591 0.7748
68600000 -0.275494 0.836319
70400000 -0.139168 0.877281
72200000 0.002873 0.89618
74000000 0.149911 0.892454
75800000 0.297095 0.864311
77600000 0.44127 0.809559
79400000 0.578382 0.728548
81200000 0.69787 0.62368
83000000 0.796809 0.496614
84800000 0.87335 0.351766
86600000 0.92094 0.197453
88400000 0.939844 0.034817
90200000 0.927337 -0.130485
92000000 0.883621 -0.287505
93800000 0.813073 -0.43297
95600000 0.717309 -0.564511
97400000 0.593612 -0.68045
99200000 0.434382 -0.77552
101000000 0.191306 -0.819122
102800000 0.028044 -0.494119
104600000 0.257187 -0.600735
106400000 0.15365 -0.734447
108200000 0.016367 -0.785538
110000000 -0.124917 -0.783936
111800000 -0.253715 -0.747477
113600000 -0.358464 -0.691044
115400000 -0.445089 -0.627381
117200000 -0.526055 -0.564743
119000000 -0.607669 -0.488705
120800000 -0.678303 -0.392889
122600000 -0.729272 -0.284191
124400000 -0.76164 -0.169634
126200000 -0.772448 -0.052566
128000000 -0.764323 0.059851
129800000 -0.738573 0.17145
131600000 -0.694318 0.272576
133400000 -0.635945 0.359907
135200000 -0.563111 0.428787
137000000 -0.493539 0.491195
138800000 -0.422932 0.546956
140600000 -0.344165 0.592753
142400000 -0.257698 0.628086
144200000 -0.167659 0.650488
146000000 -0.072608 0.6578
147800000 0.004391 0.643024
149600000 0.084919 0.62826
151400000 0.149584 0.593701
153200000 0.188895 0.571232
155000000 0.236142 0.570012
156800000 0.309698 0.573126
158600000 0.402167 0.564835
160400000 0.511928 0.521448
162200000 0.613062 0.444472
164000000 0.693471 0.341177
165800000 0.749546 0.220178
167600000 0.772804 0.093945
169400000 0.772539 -0.027169
171200000 0.760107 -0.13933
173000000 0.733236 -0.251176
174800000 0.689775 -0.360403
176600000 0.629025 -0.462729
178400000 0.552906 -0.554163
180200000 0.461362 -0.632953
182000000 0.358403 -0.697641
183800000 0.244276 -0.743338
185600000 0.124682 -0.767186
187400000 0.006637 -0.772022
189200000 -0.10832 -0.756947
191000000 -0.217531 -0.727245
192800000 -0.320819 -0.682237
194600000 -0.412951 -0.622043
196400000 -0.49438 -0.550894
198200000 -0.565494 -0.468166
200000000 -0.619466 -0.376655
