# HZ S RI R 50
20000000 0.896223 0.471803
21800000 0.985476 0.254813
23600000 1.020912 0.024005
25400000 1.000572 -0.207796
27200000 0.925866 -0.421901
29000000 0.806379 -0.608778
30800000 0.651215 -0.756481
32600000 0.47468 -0.864065
34400000 0.287209 -0.927389
36200000 0.099049 -0.945947
38000000 -0.076398 -0.928657
39800000 -0.237885 -0.886821
41600000 -0.386347 -0.819271
43400000 -0.51686 -0.731551
45200000 -0.6271 -0.621309
47000000 -0.713566 -0.499279
48800000 -0.773952 -0.368004
50600000 -0.808859 -0.234365
52400000 -0.814957 -0.108069
54200000 -0.823258 0.000713
56000000 -0.823147 0.123628
57800000 -0.801415 0.251812
59600000 -0.759101 0.375342
61400000 -0.697311 0.492319
63200000 -0.615928 0.602409
65000000 -0.516482 0.697533
66800000 -0.402027 0.775865
68600000 -0.275736 0.837078
70400000 -0.138762 0.877224
72200000 0.002726 0.896487
74000000 0.151062 0.892813
75800000 0.298183 0.864442
77600000 0.442515 0.809076
79400000 0.578559 0.728375
81200000 0.698878 0.622484
83000000 0.798362 0.49693
84800000 0.872573 0.35272
86600000 0.92191 0.197622
88400000 0.939517 0.034318
90200000 0.927685 -0.129797
92000000 0.884352 -0.287323
93800000 0.813442 -0.43372
95600000 0.715891 -0.566182
97400000 0.591541 -0.679885
99200000 0.435049 -0.773786
101000000 0.197683 -0.820782
102800000 0.015747 -0.519942
104600000 0.246116 -0.585199
106400000 0.155137 -0.724745
108200000 0.020552 -0.779951
110000000 -0.123575 -0.782602
111800000 -0.249152 -0.747324
113600000 -0.355813 -0.692158
115400000 -0.444722 -0.629869
117200000 -0.526118 -0.562882
119000000 -0.607327 -0.48534
120800000 -0.674322 -0.391106
122600000 -0.722554 -0.286646
124400000 -0.754989 -0.177568
126200000 -0.770927 -0.067314
128000000 -0.771844 0.046424
129800000 -0.753351 0.162313
131600000 -0.712163 0.272027
133400000 -0.654127 0.367428
135200000 -0.574377 0.443102
137000000 -0.499453 0.509489
138800000 -0.421532 0.566174
140600000 -0.333674 0.612933
142400000 -0.238484 0.643244
144200000 -0.140947 0.655961
146000000 -0.046288 0.643077
147800000 0.019327 0.616235
149600000 0.079763 0.603324
151400000 0.137793 0.577955
153200000 0.174224 0.563529
155000000 0.225887 0.571872
156800000 0.301608 0.575191
158600000 0.395735 0.565022
160400000 0.505774 0.525816
162200000 0.609351 0.44866
164000000 0.690859 0.344972
165800000 0.747322 0.222874
167600000 0.769834 0.094891
169400000 0.769028 -0.022737
171200000 0.7583 -0.134345
173000000 0.732621 -0.244723
174800000 0.692668 -0.353825
176600000 0.635321 -0.457165
178400000 0.558891 -0.552738
180200000 0.467385 -0.633506
182000000 0.363017 -0.698821
183800000 0.247992 -0.745945
185600000 0.128576 -0.770312
187400000 0.009568 -0.775368
189200000 -0.107307 -0.760598
191000000 -0.218268 -0.731964
192800000 -0.322006 -0.685238
194600000 -0.415696 -0.623587
196400000 -0.498024 -0.549901
198200000 -0.566496 -0.4658
200000000 -0.617604 -0.373827
