# HZ S RI R 50
20000000 0.899095 0.472855
21800000 0.985537 0.253637
23600000 1.022153 0.024492
25400000 1.000399 -0.20858
27200000 0.925573 -0.422853
29000000 0.807076 -0.607735
30800000 0.651317 -0.756187
32600000 0.474866 -0.863987
34400000 0.287017 -0.926387
36200000 0.098901 -0.945913
38000000 -0.077684 -0.928522
39800000 -0.237755 -0.886305
41600000 -0.38499 -0.819078
43400000 -0.516303 -0.730853
45200000 -0.626903 -0.623093
47000000 -0.714836 -0.500312
48800000 -0.776641 -0.368901
50600000 -0.811681 -0.232994
52400000 -0.818533 -0.106064
54200000 -0.823346 0.005224
56000000 -0.819521 0.123767
57800000 -0.799344 0.249352
59600000 -0.758185 0.37328
61400000 -0.69816 0.492627
63200000 -0.615922 0.602126
65000000 -0.51757 0.696946
66800000 -0.402687 0.777066
68600000 -0.277197 0.837124
70400000 -0.141439 0.87715
72200000 0.003753 0.898661
74000000 0.151259 0.89441
75800000 0.299217 0.865843
77600000 0.444337 0.80962
79400000 0.578488 0.72947
81200000 0.699526 0.623932
83000000 0.798546 0.497186
84800000 0.874208 0.353467
86600000 0.922491 0.195915
88400000 0.94008 0.032746
90200000 0.928509 -0.130986
92000000 0.883614 -0.288049
93800000 0.813568 -0.436968
95600000 0.715191 -0.567798
97400000 0.591797 -0.682346
99200000 0.434375 -0.775501
101000000 0.198839 -0.819906
102800000 0.045313 -0.554431
104600000 0.187204 -0.593881
106400000 0.130086 -0.683985
108200000 0.033339 -0.742613
110000000 -0.094358 -0.769387
111800000 -0.228694 -0.750497
113600000 -0.34628 -0.703861
115400000 -0.444302 -0.639494
117200000 -0.526539 -0.567399
119000000 -0.603742 -0.488885
120800000 -0.66718 -0.39594
122600000 -0.718416 -0.298302
124400000 -0.755775 -0.191237
126200000 -0.776858 -0.079816
128000000 -0.782603 0.036356
129800000 -0.766502 0.154413
131600000 -0.730584 0.268042
133400000 -0.675751 0.371352
135200000 -0.59651 0.453525
137000000 -0.518984 0.529863
138800000 -0.431178 0.596818
140600000 -0.329324 0.649615
142400000 -0.216535 0.678554
144200000 -0.101661 0.679054
146000000 -4e-06 0.648844
147800000 0.074047 0.600733
149600000 0.122838 0.550168
151400000 0.135581 0.511393
153200000 0.144031 0.517513
155000000 0.185266 0.548241
156800000 0.258195 0.571956
158600000 0.362033 0.580245
160400000 0.483533 0.546029
162200000 0.59607 0.471887
164000000 0.684411 0.369821
165800000 0.749103 0.250681
167600000 0.784651 0.119703
169400000 0.792889 -0.008306
171200000 0.781909 -0.133122
173000000 0.752599 -0.254181
174800000 0.704022 -0.366948
176600000 0.639394 -0.470623
178400000 0.560049 -0.563199
180200000 0.467527 -0.64242
182000000 0.361591 -0.707069
183800000 0.245822 -0.754317
185600000 0.124341 -0.779251
187400000 0.002009 -0.783277
189200000 -0.117405 -0.766864
191000000 -0.229856 -0.733902
192800000 -0.334044 -0.683306
194600000 -0.426961 -0.618455
196400000 -0.506634 -0.543186
198200000 -0.57335 -0.457489
200000000 -0.624027 -0.364225
