# HZ S RI R 50
20000000 0.896299 0.472389
21800000 0.985799 0.253201
23600000 1.021755 0.023583
25400000 1.000163 -0.209331
27200000 0.925956 -0.423578
29000000 0.804516 -0.608187
30800000 0.652058 -0.756826
32600000 0.474594 -0.863178
34400000 0.286557 -0.928141
36200000 0.098491 -0.947639
38000000 -0.079496 -0.929962
39800000 -0.239489 -0.885327
41600000 -0.386085 -0.820164
43400000 -0.517501 -0.730334
45200000 -0.627925 -0.621658
47000000 -0.715717 -0.499063
48800000 -0.777364 -0.366188
50600000 -0.810003 -0.230139
52400000 -0.813645 -0.103904
54200000 -0.817231 -0.000291
56000000 -0.820763 0.118872
57800000 -0.803087 0.247181
59600000 -0.762544 0.372078
61400000 -0.699702 0.493414
63200000 -0.617702 0.603896
65000000 -0.518558 0.698991
66800000 -0.404666 0.777914
68600000 -0.277159 0.838891
70400000 -0.140387 0.879651
72200000 0.003574 0.899156
74000000 0.152105 0.894686
75800000 0.298713 0.866619
77600000 0.4446 0.809928
79400000 0.579639 0.730126
81200000 0.699491 0.623875
83000000 0.798486 0.496665
84800000 0.873372 0.352477
86600000 0.922135 0.197035
88400000 0.940525 0.033866
90200000 0.929279 -0.129417
92000000 0.886239 -0.289537
93800000 0.8142 -0.435147
95600000 0.71675 -0.567628
97400000 0.59231 -0.680591
99200000 0.434269 -0.774834
101000000 0.203079 -0.821701
102800000 0.02314 -0.538701
104600000 0.216112 -0.59311
106400000 0.137835 -0.701782
108200000 0.029525 -0.75433
110000000 -0.100559 -0.774448
111800000 -0.231747 -0.755131
113600000 -0.350924 -0.707716
115400000 -0.45117 -0.639058
117200000 -0.529391 -0.564951
119000000 -0.605807 -0.489362
120800000 -0.671788 -0.396474
122600000 -0.725419 -0.293903
124400000 -0.759542 -0.18579
126200000 -0.776479 -0.071773
128000000 -0.779902 0.041849
129800000 -0.763574 0.159612
131600000 -0.726409 0.270931
133400000 -0.672196 0.373749
135200000 -0.588699 0.456678
137000000 -0.509655 0.530011
138800000 -0.422327 0.592452
140600000 -0.323665 0.641687
142400000 -0.214838 0.668857
144200000 -0.101536 0.669877
146000000 -0.003387 0.635054
147800000 0.057906 0.590287
149600000 0.101487 0.553337
151400000 0.120926 0.52552
153200000 0.139031 0.537724
155000000 0.19078 0.564431
156800000 0.271556 0.582395
158600000 0.376729 0.581326
160400000 0.495152 0.541135
162200000 0.601995 0.464827
164000000 0.687539 0.362987
165800000 0.748882 0.244289
167600000 0.782634 0.115053
169400000 0.790083 -0.01223
171200000 0.779639 -0.134615
173000000 0.749825 -0.254608
174800000 0.701693 -0.368877
176600000 0.636439 -0.469394
178400000 0.558683 -0.563739
180200000 0.464526 -0.642735
182000000 0.358567 -0.705931
183800000 0.242827 -0.752645
185600000 0.121354 -0.775818
187400000 0.000419 -0.777991
189200000 -0.115371 -0.761456
191000000 -0.226186 -0.730188
192800000 -0.329038 -0.681962
194600000 -0.421863 -0.619517
196400000 -0.501338 -0.545649
198200000 -0.569493 -0.461901
200000000 -0.621998 -0.371059
