# HZ S RI R 50
20000000 0.882219 0.504911
21800000 0.985684 0.253304
23600000 1.022504 0.022728
25400000 1.001241 -0.207558
27200000 0.92713 -0.423443
29000000 0.8054 -0.608644
30800000 0.651892 -0.757663
32600000 0.473397 -0.863751
34400000 0.286593 -0.927361
36200000 0.099069 -0.947584
38000000 -0.078008 -0.929694
39800000 -0.239192 -0.887762
41600000 -0.387335 -0.819864
43400000 -0.518252 -0.73042
45200000 -0.628695 -0.622268
47000000 -0.715157 -0.498008
48800000 -0.775493 -0.367006
50600000 -0.80652 -0.232773
52400000 -0.813877 -0.112259
54200000 -0.827763 -0.0019
56000000 -0.826735 0.123337
57800000 -0.803771 0.25275
59600000 -0.76076 0.376688
61400000 -0.698529 0.494654
63200000 -0.617145 0.602839
65000000 -0.517286 0.699184
66800000 -0.402159 0.777586
68600000 -0.275143 0.837869
70400000 -0.138816 0.879044
72200000 0.003834 0.897465
74000000 0.152289 0.893756
75800000 0.298882 0.86511
77600000 0.443294 0.810082
79400000 0.579661 0.728978
81200000 0.698743 0.62377
83000000 0.797877 0.495837
84800000 0.87246 0.352676
86600000 0.922237 0.198807
88400000 0.939843 0.033762
90200000 0.928563 -0.129403
92000000 0.88565 -0.286148
93800000 0.814115 -0.432464
95600000 0.717708 -0.564669
97400000 0.59471 -0.67816
99200000 0.439521 -0.771842
101000000 0.210949 -0.824284
102800000 -0.016288 -0.533451
104600000 0.264938 -0.580229
106400000 0.162805 -0.737674
108200000 0.018496 -0.790179
110000000 -0.125937 -0.788838
111800000 -0.254463 -0.75295
113600000 -0.361851 -0.696945
115400000 -0.454018 -0.637873
117200000 -0.541536 -0.568481
119000000 -0.623345 -0.482221
120800000 -0.687312 -0.383122
122600000 -0.733513 -0.27587
124400000 -0.761705 -0.161351
126200000 -0.771741 -0.047174
128000000 -0.764655 0.064718
129800000 -0.738521 0.17745
131600000 -0.694212 0.278493
133400000 -0.636886 0.368843
135200000 -0.557006 0.438654
137000000 -0.484089 0.501119
138800000 -0.40681 0.552117
140600000 -0.323997 0.59356
142400000 -0.23813 0.620317
144200000 -0.147939 0.632725
146000000 -0.064234 0.622071
147800000 -0.007473 0.606883
149600000 0.052601 0.601783
151400000 0.105071 0.590488
153200000 0.15627 0.593678
155000000 0.225884 0.602345
156800000 0.314971 0.598835
158600000 0.416012 0.577144
160400000 0.523097 0.5263
162200000 0.620521 0.445406
164000000 0.698536 0.342259
165800000 0.754472 0.221855
167600000 0.780422 0.093379
169400000 0.780952 -0.029201
171200000 0.766001 -0.146038
173000000 0.735619 -0.258107
174800000 0.689424 -0.366686
176600000 0.628379 -0.46657
178400000 0.551796 -0.560204
180200000 0.45843 -0.638942
182000000 0.355215 -0.702322
183800000 0.239074 -0.74807
185600000 0.119342 -0.770281
187400000 0.000796 -0.773281
189200000 -0.115172 -0.757877
191000000 -0.225092 -0.726945
192800000 -0.328993 -0.678428
194600000 -0.420433 -0.616038
196400000 -0.498728 -0.542372
198200000 -0.566166 -0.460539
200000000 -0.619873 -0.370003
