# HZ S RI R 50
20000000 0.898387 0.473209
21800000 0.988318 0.235992
23600000 1.022507 0.005178
25400000 1.001722 -0.208537
27200000 0.917592 -0.439599
29000000 0.79344 -0.62256
30800000 0.635735 -0.769082
32600000 0.473952 -0.864064
34400000 0.286314 -0.927316
36200000 0.098818 -0.945612
38000000 -0.077298 -0.928896
39800000 -0.237671 -0.886981
41600000 -0.386006 -0.8205
43400000 -0.517462 -0.730476
45200000 -0.627025 -0.621614
47000000 -0.714023 -0.497728
48800000 -0.775907 -0.366889
50600000 -0.807462 -0.234531
52400000 -0.816479 -0.112037
54200000 -0.829061 -0.000198
56000000 -0.82599 0.125205
57800000 -0.802451 0.252914
59600000 -0.759151 0.378123
61400000 -0.696962 0.494204
63200000 -0.615356 0.603257
65000000 -0.515633 0.69807
66800000 -0.40196 0.775598
68600000 -0.276325 0.836486
70400000 -0.140447 0.878225
72200000 0.003578 0.896941
74000000 0.149766 0.892795
75800000 0.299062 0.864674
77600000 0.442618 0.809968
79400000 0.578297 0.729728
81200000 0.696796 0.624161
83000000 0.797783 0.498007
84800000 0.873635 0.353669
86600000 0.921606 0.197752
88400000 0.940768 0.035812
90200000 0.929305 -0.128755
92000000 0.885765 -0.285937
93800000 0.81572 -0.431966
95600000 0.719201 -0.565546
97400000 0.595648 -0.679096
99200000 0.442759 -0.771483
101000000 0.218238 -0.82466
102800000 -0.025084 -0.561921
104600000 0.255769 -0.568914
106400000 0.165753 -0.731772
108200000 0.021664 -0.790764
110000000 -0.1253 -0.793406
111800000 -0.257718 -0.755134
113600000 -0.365078 -0.697787
115400000 -0.454602 -0.63414
117200000 -0.541145 -0.566613
119000000 -0.621676 -0.482933
120800000 -0.687793 -0.382965
122600000 -0.733645 -0.275941
124400000 -0.764592 -0.162719
126200000 -0.772558 -0.045828
128000000 -0.763318 0.067098
129800000 -0.740011 0.179324
131600000 -0.695315 0.283351
133400000 -0.635441 0.37393
135200000 -0.553942 0.445553
137000000 -0.475608 0.505784
138800000 -0.39674 0.552468
140600000 -0.314663 0.589395
142400000 -0.229327 0.612588
144200000 -0.141624 0.622659
146000000 -0.060108 0.603924
147800000 -0.018084 0.582168
149600000 0.027199 0.588566
151400000 0.076532 0.595904
153200000 0.136279 0.61481
155000000 0.220744 0.6276
156800000 0.322757 0.620248
158600000 0.429667 0.590674
160400000 0.538825 0.530084
162200000 0.634992 0.443173
164000000 0.708424 0.337121
165800000 0.761545 0.213982
167600000 0.782517 0.083629
169400000 0.778173 -0.038479
171200000 0.75935 -0.152858
173000000 0.729572 -0.261265
174800000 0.68367 -0.367255
176600000 0.623693 -0.466352
178400000 0.546449 -0.556284
180200000 0.455046 -0.633708
182000000 0.353325 -0.696352
183800000 0.239713 -0.74142
185600000 0.121715 -0.765278
187400000 0.004043 -0.768938
189200000 -0.109409 -0.754914
191000000 -0.218996 -0.724916
192800000 -0.321634 -0.677801
194600000 -0.413765 -0.616351
196400000 -0.491946 -0.544346
198200000 -0.559364 -0.463338
200000000 -0.610534 -0.37692
